4902
Lattice="80.556 48.407355969934976 0.0 -1.6439999999999984 93.96722041222671 0.0 0.0 0.0 27.828" Properties=species:S:1:pos:R:3 pbc="T T F"
Mo       0.00000000      91.11972888      10.66400000
Mo       1.64400000      93.96722041      10.66400000
Mo       3.28800000      96.81471194      10.66400000
Mo       0.00000000      85.42474583      10.66400000
Mo       1.64400000      88.27223736      10.66400000
Mo       3.28800000      91.11972888      10.66400000
Mo       4.93200000      93.96722041      10.66400000
Mo       6.57600000      96.81471194      10.66400000
Mo       8.22000000      99.66220347      10.66400000
Mo       0.00000000      79.72976277      10.66400000
Mo       1.64400000      82.57725430      10.66400000
Mo       3.28800000      85.42474583      10.66400000
Mo       4.93200000      88.27223736      10.66400000
Mo       6.57600000      91.11972888      10.66400000
Mo       8.22000000      93.96722041      10.66400000
Mo       9.86400000      96.81471194      10.66400000
Mo      11.50800000      99.66220347      10.66400000
Mo      13.15200000     102.50969500      10.66400000
Mo       0.00000000      74.03477972      10.66400000
Mo       1.64400000      76.88227125      10.66400000
Mo       3.28800000      79.72976277      10.66400000
Mo       4.93200000      82.57725430      10.66400000
Mo       6.57600000      85.42474583      10.66400000
Mo       8.22000000      88.27223736      10.66400000
Mo       9.86400000      91.11972888      10.66400000
Mo      11.50800000      93.96722041      10.66400000
Mo      13.15200000      96.81471194      10.66400000
Mo      14.79600000      99.66220347      10.66400000
Mo      16.44000000     102.50969500      10.66400000
Mo      18.08400000     105.35718652      10.66400000
Mo       0.00000000      68.33979666      10.66400000
Mo       1.64400000      71.18728819      10.66400000
Mo       3.28800000      74.03477972      10.66400000
Mo       4.93200000      76.88227125      10.66400000
Mo       6.57600000      79.72976277      10.66400000
Mo       8.22000000      82.57725430      10.66400000
Mo       9.86400000      85.42474583      10.66400000
Mo      11.50800000      88.27223736      10.66400000
Mo      13.15200000      91.11972888      10.66400000
Mo      14.79600000      93.96722041      10.66400000
Mo      16.44000000      96.81471194      10.66400000
Mo      18.08400000      99.66220347      10.66400000
Mo      19.72800000     102.50969500      10.66400000
Mo      21.37200000     105.35718652      10.66400000
Mo      23.01600000     108.20467805      10.66400000
Mo       0.00000000      62.64481361      10.66400000
Mo       1.64400000      65.49230514      10.66400000
Mo       3.28800000      68.33979666      10.66400000
Mo       4.93200000      71.18728819      10.66400000
Mo       6.57600000      74.03477972      10.66400000
Mo       8.22000000      76.88227125      10.66400000
Mo       9.86400000      79.72976277      10.66400000
Mo      11.50800000      82.57725430      10.66400000
Mo      13.15200000      85.42474583      10.66400000
Mo      14.79600000      88.27223736      10.66400000
Mo      16.44000000      91.11972888      10.66400000
Mo      18.08400000      93.96722041      10.66400000
Mo      19.72800000      96.81471194      10.66400000
Mo      21.37200000      99.66220347      10.66400000
Mo      23.01600000     102.50969500      10.66400000
Mo      24.66000000     105.35718652      10.66400000
Mo      26.30400000     108.20467805      10.66400000
Mo      27.94800000     111.05216958      10.66400000
Mo       0.00000000      56.94983055      10.66400000
Mo       1.64400000      59.79732208      10.66400000
Mo       3.28800000      62.64481361      10.66400000
Mo       4.93200000      65.49230514      10.66400000
Mo       6.57600000      68.33979666      10.66400000
Mo       8.22000000      71.18728819      10.66400000
Mo       9.86400000      74.03477972      10.66400000
Mo      11.50800000      76.88227125      10.66400000
Mo      13.15200000      79.72976277      10.66400000
Mo      14.79600000      82.57725430      10.66400000
Mo      16.44000000      85.42474583      10.66400000
Mo      18.08400000      88.27223736      10.66400000
Mo      19.72800000      91.11972888      10.66400000
Mo      21.37200000      93.96722041      10.66400000
Mo      23.01600000      96.81471194      10.66400000
Mo      24.66000000      99.66220347      10.66400000
Mo      26.30400000     102.50969500      10.66400000
Mo      27.94800000     105.35718652      10.66400000
Mo      29.59200000     108.20467805      10.66400000
Mo      31.23600000     111.05216958      10.66400000
Mo      32.88000000     113.89966111      10.66400000
Mo       0.00000000      51.25484750      10.66400000
Mo       1.64400000      54.10233903      10.66400000
Mo       3.28800000      56.94983055      10.66400000
Mo       4.93200000      59.79732208      10.66400000
Mo       6.57600000      62.64481361      10.66400000
Mo       8.22000000      65.49230514      10.66400000
Mo       9.86400000      68.33979666      10.66400000
Mo      11.50800000      71.18728819      10.66400000
Mo      13.15200000      74.03477972      10.66400000
Mo      14.79600000      76.88227125      10.66400000
Mo      16.44000000      79.72976277      10.66400000
Mo      18.08400000      82.57725430      10.66400000
Mo      19.72800000      85.42474583      10.66400000
Mo      21.37200000      88.27223736      10.66400000
Mo      23.01600000      91.11972888      10.66400000
Mo      24.66000000      93.96722041      10.66400000
Mo      26.30400000      96.81471194      10.66400000
Mo      27.94800000      99.66220347      10.66400000
Mo      29.59200000     102.50969500      10.66400000
Mo      31.23600000     105.35718652      10.66400000
Mo      32.88000000     108.20467805      10.66400000
Mo      34.52400000     111.05216958      10.66400000
Mo      36.16800000     113.89966111      10.66400000
Mo      37.81200000     116.74715263      10.66400000
Mo       0.00000000      45.55986444      10.66400000
Mo       1.64400000      48.40735597      10.66400000
Mo       3.28800000      51.25484750      10.66400000
Mo       4.93200000      54.10233903      10.66400000
Mo       6.57600000      56.94983055      10.66400000
Mo       8.22000000      59.79732208      10.66400000
Mo       9.86400000      62.64481361      10.66400000
Mo      11.50800000      65.49230514      10.66400000
Mo      13.15200000      68.33979666      10.66400000
Mo      14.79600000      71.18728819      10.66400000
Mo      16.44000000      74.03477972      10.66400000
Mo      18.08400000      76.88227125      10.66400000
Mo      19.72800000      79.72976277      10.66400000
Mo      21.37200000      82.57725430      10.66400000
Mo      23.01600000      85.42474583      10.66400000
Mo      24.66000000      88.27223736      10.66400000
Mo      26.30400000      91.11972888      10.66400000
Mo      27.94800000      93.96722041      10.66400000
Mo      29.59200000      96.81471194      10.66400000
Mo      31.23600000      99.66220347      10.66400000
Mo      32.88000000     102.50969500      10.66400000
Mo      34.52400000     105.35718652      10.66400000
Mo      36.16800000     108.20467805      10.66400000
Mo      37.81200000     111.05216958      10.66400000
Mo      39.45600000     113.89966111      10.66400000
Mo      41.10000000     116.74715263      10.66400000
Mo      42.74400000     119.59464416      10.66400000
Mo       0.00000000      39.86488139      10.66400000
Mo       1.64400000      42.71237291      10.66400000
Mo       3.28800000      45.55986444      10.66400000
Mo       4.93200000      48.40735597      10.66400000
Mo       6.57600000      51.25484750      10.66400000
Mo       8.22000000      54.10233903      10.66400000
Mo       9.86400000      56.94983055      10.66400000
Mo      11.50800000      59.79732208      10.66400000
Mo      13.15200000      62.64481361      10.66400000
Mo      14.79600000      65.49230514      10.66400000
Mo      16.44000000      68.33979666      10.66400000
Mo      18.08400000      71.18728819      10.66400000
Mo      19.72800000      74.03477972      10.66400000
Mo      21.37200000      76.88227125      10.66400000
Mo      23.01600000      79.72976277      10.66400000
Mo      24.66000000      82.57725430      10.66400000
Mo      26.30400000      85.42474583      10.66400000
Mo      27.94800000      88.27223736      10.66400000
Mo      29.59200000      91.11972888      10.66400000
Mo      31.23600000      93.96722041      10.66400000
Mo      32.88000000      96.81471194      10.66400000
Mo      34.52400000      99.66220347      10.66400000
Mo      36.16800000     102.50969500      10.66400000
Mo      37.81200000     105.35718652      10.66400000
Mo      39.45600000     108.20467805      10.66400000
Mo      41.10000000     111.05216958      10.66400000
Mo      42.74400000     113.89966111      10.66400000
Mo      44.38800000     116.74715263      10.66400000
Mo      46.03200000     119.59464416      10.66400000
Mo      47.67600000     122.44213569      10.66400000
Mo       0.00000000      34.16989833      10.66400000
Mo       1.64400000      37.01738986      10.66400000
Mo       3.28800000      39.86488139      10.66400000
Mo       4.93200000      42.71237291      10.66400000
Mo       6.57600000      45.55986444      10.66400000
Mo       8.22000000      48.40735597      10.66400000
Mo       9.86400000      51.25484750      10.66400000
Mo      11.50800000      54.10233903      10.66400000
Mo      13.15200000      56.94983055      10.66400000
Mo      14.79600000      59.79732208      10.66400000
Mo      16.44000000      62.64481361      10.66400000
Mo      18.08400000      65.49230514      10.66400000
Mo      19.72800000      68.33979666      10.66400000
Mo      21.37200000      71.18728819      10.66400000
Mo      23.01600000      74.03477972      10.66400000
Mo      24.66000000      76.88227125      10.66400000
Mo      26.30400000      79.72976277      10.66400000
Mo      27.94800000      82.57725430      10.66400000
Mo      29.59200000      85.42474583      10.66400000
Mo      31.23600000      88.27223736      10.66400000
Mo      32.88000000      91.11972888      10.66400000
Mo      34.52400000      93.96722041      10.66400000
Mo      36.16800000      96.81471194      10.66400000
Mo      37.81200000      99.66220347      10.66400000
Mo      39.45600000     102.50969500      10.66400000
Mo      41.10000000     105.35718652      10.66400000
Mo      42.74400000     108.20467805      10.66400000
Mo      44.38800000     111.05216958      10.66400000
Mo      46.03200000     113.89966111      10.66400000
Mo      47.67600000     116.74715263      10.66400000
Mo      49.32000000     119.59464416      10.66400000
Mo      50.96400000     122.44213569      10.66400000
Mo      52.60800000     125.28962722      10.66400000
Mo       0.00000000      28.47491528      10.66400000
Mo       1.64400000      31.32240680      10.66400000
Mo       3.28800000      34.16989833      10.66400000
Mo       4.93200000      37.01738986      10.66400000
Mo       6.57600000      39.86488139      10.66400000
Mo       8.22000000      42.71237291      10.66400000
Mo       9.86400000      45.55986444      10.66400000
Mo      11.50800000      48.40735597      10.66400000
Mo      13.15200000      51.25484750      10.66400000
Mo      14.79600000      54.10233903      10.66400000
Mo      16.44000000      56.94983055      10.66400000
Mo      18.08400000      59.79732208      10.66400000
Mo      19.72800000      62.64481361      10.66400000
Mo      21.37200000      65.49230514      10.66400000
Mo      23.01600000      68.33979666      10.66400000
Mo      24.66000000      71.18728819      10.66400000
Mo      26.30400000      74.03477972      10.66400000
Mo      27.94800000      76.88227125      10.66400000
Mo      29.59200000      79.72976277      10.66400000
Mo      31.23600000      82.57725430      10.66400000
Mo      32.88000000      85.42474583      10.66400000
Mo      34.52400000      88.27223736      10.66400000
Mo      36.16800000      91.11972888      10.66400000
Mo      37.81200000      93.96722041      10.66400000
Mo      39.45600000      96.81471194      10.66400000
Mo      41.10000000      99.66220347      10.66400000
Mo      42.74400000     102.50969500      10.66400000
Mo      44.38800000     105.35718652      10.66400000
Mo      46.03200000     108.20467805      10.66400000
Mo      47.67600000     111.05216958      10.66400000
Mo      49.32000000     113.89966111      10.66400000
Mo      50.96400000     116.74715263      10.66400000
Mo      52.60800000     119.59464416      10.66400000
Mo      54.25200000     122.44213569      10.66400000
Mo      55.89600000     125.28962722      10.66400000
Mo      57.54000000     128.13711874      10.66400000
Mo       0.00000000      22.77993222      10.66400000
Mo       1.64400000      25.62742375      10.66400000
Mo       3.28800000      28.47491528      10.66400000
Mo       4.93200000      31.32240680      10.66400000
Mo       6.57600000      34.16989833      10.66400000
Mo       8.22000000      37.01738986      10.66400000
Mo       9.86400000      39.86488139      10.66400000
Mo      11.50800000      42.71237291      10.66400000
Mo      13.15200000      45.55986444      10.66400000
Mo      14.79600000      48.40735597      10.66400000
Mo      16.44000000      51.25484750      10.66400000
Mo      18.08400000      54.10233903      10.66400000
Mo      19.72800000      56.94983055      10.66400000
Mo      21.37200000      59.79732208      10.66400000
Mo      23.01600000      62.64481361      10.66400000
Mo      24.66000000      65.49230514      10.66400000
Mo      26.30400000      68.33979666      10.66400000
Mo      27.94800000      71.18728819      10.66400000
Mo      29.59200000      74.03477972      10.66400000
Mo      31.23600000      76.88227125      10.66400000
Mo      32.88000000      79.72976277      10.66400000
Mo      34.52400000      82.57725430      10.66400000
Mo      36.16800000      85.42474583      10.66400000
Mo      37.81200000      88.27223736      10.66400000
Mo      39.45600000      91.11972888      10.66400000
Mo      41.10000000      93.96722041      10.66400000
Mo      42.74400000      96.81471194      10.66400000
Mo      44.38800000      99.66220347      10.66400000
Mo      46.03200000     102.50969500      10.66400000
Mo      47.67600000     105.35718652      10.66400000
Mo      49.32000000     108.20467805      10.66400000
Mo      50.96400000     111.05216958      10.66400000
Mo      52.60800000     113.89966111      10.66400000
Mo      54.25200000     116.74715263      10.66400000
Mo      55.89600000     119.59464416      10.66400000
Mo      57.54000000     122.44213569      10.66400000
Mo      59.18400000     125.28962722      10.66400000
Mo      60.82800000     128.13711874      10.66400000
Mo      62.47200000     130.98461027      10.66400000
Mo       0.00000000      17.08494917      10.66400000
Mo       1.64400000      19.93244069      10.66400000
Mo       3.28800000      22.77993222      10.66400000
Mo       4.93200000      25.62742375      10.66400000
Mo       6.57600000      28.47491528      10.66400000
Mo       8.22000000      31.32240680      10.66400000
Mo       9.86400000      34.16989833      10.66400000
Mo      11.50800000      37.01738986      10.66400000
Mo      13.15200000      39.86488139      10.66400000
Mo      14.79600000      42.71237291      10.66400000
Mo      16.44000000      45.55986444      10.66400000
Mo      18.08400000      48.40735597      10.66400000
Mo      19.72800000      51.25484750      10.66400000
Mo      21.37200000      54.10233903      10.66400000
Mo      23.01600000      56.94983055      10.66400000
Mo      24.66000000      59.79732208      10.66400000
Mo      26.30400000      62.64481361      10.66400000
Mo      27.94800000      65.49230514      10.66400000
Mo      29.59200000      68.33979666      10.66400000
Mo      31.23600000      71.18728819      10.66400000
Mo      32.88000000      74.03477972      10.66400000
Mo      34.52400000      76.88227125      10.66400000
Mo      36.16800000      79.72976277      10.66400000
Mo      37.81200000      82.57725430      10.66400000
Mo      39.45600000      85.42474583      10.66400000
Mo      41.10000000      88.27223736      10.66400000
Mo      42.74400000      91.11972888      10.66400000
Mo      44.38800000      93.96722041      10.66400000
Mo      46.03200000      96.81471194      10.66400000
Mo      47.67600000      99.66220347      10.66400000
Mo      49.32000000     102.50969500      10.66400000
Mo      50.96400000     105.35718652      10.66400000
Mo      52.60800000     108.20467805      10.66400000
Mo      54.25200000     111.05216958      10.66400000
Mo      55.89600000     113.89966111      10.66400000
Mo      57.54000000     116.74715263      10.66400000
Mo      59.18400000     119.59464416      10.66400000
Mo      60.82800000     122.44213569      10.66400000
Mo      62.47200000     125.28962722      10.66400000
Mo      64.11600000     128.13711874      10.66400000
Mo      65.76000000     130.98461027      10.66400000
Mo      67.40400000     133.83210180      10.66400000
Mo       0.00000000      11.38996611      10.66400000
Mo       1.64400000      14.23745764      10.66400000
Mo       3.28800000      17.08494917      10.66400000
Mo       4.93200000      19.93244069      10.66400000
Mo       6.57600000      22.77993222      10.66400000
Mo       8.22000000      25.62742375      10.66400000
Mo       9.86400000      28.47491528      10.66400000
Mo      11.50800000      31.32240680      10.66400000
Mo      13.15200000      34.16989833      10.66400000
Mo      14.79600000      37.01738986      10.66400000
Mo      16.44000000      39.86488139      10.66400000
Mo      18.08400000      42.71237291      10.66400000
Mo      19.72800000      45.55986444      10.66400000
Mo      21.37200000      48.40735597      10.66400000
Mo      23.01600000      51.25484750      10.66400000
Mo      24.66000000      54.10233903      10.66400000
Mo      26.30400000      56.94983055      10.66400000
Mo      27.94800000      59.79732208      10.66400000
Mo      29.59200000      62.64481361      10.66400000
Mo      31.23600000      65.49230514      10.66400000
Mo      32.88000000      68.33979666      10.66400000
Mo      34.52400000      71.18728819      10.66400000
Mo      36.16800000      74.03477972      10.66400000
Mo      37.81200000      76.88227125      10.66400000
Mo      39.45600000      79.72976277      10.66400000
Mo      41.10000000      82.57725430      10.66400000
Mo      42.74400000      85.42474583      10.66400000
Mo      44.38800000      88.27223736      10.66400000
Mo      46.03200000      91.11972888      10.66400000
Mo      47.67600000      93.96722041      10.66400000
Mo      49.32000000      96.81471194      10.66400000
Mo      50.96400000      99.66220347      10.66400000
Mo      52.60800000     102.50969500      10.66400000
Mo      54.25200000     105.35718652      10.66400000
Mo      55.89600000     108.20467805      10.66400000
Mo      57.54000000     111.05216958      10.66400000
Mo      59.18400000     113.89966111      10.66400000
Mo      60.82800000     116.74715263      10.66400000
Mo      62.47200000     119.59464416      10.66400000
Mo      64.11600000     122.44213569      10.66400000
Mo      65.76000000     125.28962722      10.66400000
Mo      67.40400000     128.13711874      10.66400000
Mo      69.04800000     130.98461027      10.66400000
Mo      70.69200000     133.83210180      10.66400000
Mo      72.33600000     136.67959333      10.66400000
Mo       0.00000000       5.69498306      10.66400000
Mo       1.64400000       8.54247458      10.66400000
Mo       3.28800000      11.38996611      10.66400000
Mo       4.93200000      14.23745764      10.66400000
Mo       6.57600000      17.08494917      10.66400000
Mo       8.22000000      19.93244069      10.66400000
Mo       9.86400000      22.77993222      10.66400000
Mo      11.50800000      25.62742375      10.66400000
Mo      13.15200000      28.47491528      10.66400000
Mo      14.79600000      31.32240680      10.66400000
Mo      16.44000000      34.16989833      10.66400000
Mo      18.08400000      37.01738986      10.66400000
Mo      19.72800000      39.86488139      10.66400000
Mo      21.37200000      42.71237291      10.66400000
Mo      23.01600000      45.55986444      10.66400000
Mo      24.66000000      48.40735597      10.66400000
Mo      26.30400000      51.25484750      10.66400000
Mo      27.94800000      54.10233903      10.66400000
Mo      29.59200000      56.94983055      10.66400000
Mo      31.23600000      59.79732208      10.66400000
Mo      32.88000000      62.64481361      10.66400000
Mo      34.52400000      65.49230514      10.66400000
Mo      36.16800000      68.33979666      10.66400000
Mo      37.81200000      71.18728819      10.66400000
Mo      39.45600000      74.03477972      10.66400000
Mo      41.10000000      76.88227125      10.66400000
Mo      42.74400000      79.72976277      10.66400000
Mo      44.38800000      82.57725430      10.66400000
Mo      46.03200000      85.42474583      10.66400000
Mo      47.67600000      88.27223736      10.66400000
Mo      49.32000000      91.11972888      10.66400000
Mo      50.96400000      93.96722041      10.66400000
Mo      52.60800000      96.81471194      10.66400000
Mo      54.25200000      99.66220347      10.66400000
Mo      55.89600000     102.50969500      10.66400000
Mo      57.54000000     105.35718652      10.66400000
Mo      59.18400000     108.20467805      10.66400000
Mo      60.82800000     111.05216958      10.66400000
Mo      62.47200000     113.89966111      10.66400000
Mo      64.11600000     116.74715263      10.66400000
Mo      65.76000000     119.59464416      10.66400000
Mo      67.40400000     122.44213569      10.66400000
Mo      69.04800000     125.28962722      10.66400000
Mo      70.69200000     128.13711874      10.66400000
Mo      72.33600000     130.98461027      10.66400000
Mo      73.98000000     133.83210180      10.66400000
Mo      75.62400000     136.67959333      10.66400000
Mo      77.26800000     139.52708485      10.66400000
Mo       0.00000000       0.00000000      10.66400000
Mo       1.64400000       2.84749153      10.66400000
Mo       3.28800000       5.69498306      10.66400000
Mo       4.93200000       8.54247458      10.66400000
Mo       6.57600000      11.38996611      10.66400000
Mo       8.22000000      14.23745764      10.66400000
Mo       9.86400000      17.08494917      10.66400000
Mo      11.50800000      19.93244069      10.66400000
Mo      13.15200000      22.77993222      10.66400000
Mo      14.79600000      25.62742375      10.66400000
Mo      16.44000000      28.47491528      10.66400000
Mo      18.08400000      31.32240680      10.66400000
Mo      19.72800000      34.16989833      10.66400000
Mo      21.37200000      37.01738986      10.66400000
Mo      23.01600000      39.86488139      10.66400000
Mo      24.66000000      42.71237291      10.66400000
Mo      26.30400000      45.55986444      10.66400000
Mo      27.94800000      48.40735597      10.66400000
Mo      29.59200000      51.25484750      10.66400000
Mo      31.23600000      54.10233903      10.66400000
Mo      32.88000000      56.94983055      10.66400000
Mo      34.52400000      59.79732208      10.66400000
Mo      36.16800000      62.64481361      10.66400000
Mo      37.81200000      65.49230514      10.66400000
Mo      39.45600000      68.33979666      10.66400000
Mo      41.10000000      71.18728819      10.66400000
Mo      42.74400000      74.03477972      10.66400000
Mo      44.38800000      76.88227125      10.66400000
Mo      46.03200000      79.72976277      10.66400000
Mo      47.67600000      82.57725430      10.66400000
Mo      49.32000000      85.42474583      10.66400000
Mo      50.96400000      88.27223736      10.66400000
Mo      52.60800000      91.11972888      10.66400000
Mo      54.25200000      93.96722041      10.66400000
Mo      55.89600000      96.81471194      10.66400000
Mo      57.54000000      99.66220347      10.66400000
Mo      59.18400000     102.50969500      10.66400000
Mo      60.82800000     105.35718652      10.66400000
Mo      62.47200000     108.20467805      10.66400000
Mo      64.11600000     111.05216958      10.66400000
Mo      65.76000000     113.89966111      10.66400000
Mo      67.40400000     116.74715263      10.66400000
Mo      69.04800000     119.59464416      10.66400000
Mo      70.69200000     122.44213569      10.66400000
Mo      72.33600000     125.28962722      10.66400000
Mo      73.98000000     128.13711874      10.66400000
Mo      75.62400000     130.98461027      10.66400000
Mo      77.26800000     133.83210180      10.66400000
Mo      78.91200000     136.67959333      10.66400000
Mo       6.57600000       5.69498306      10.66400000
Mo       8.22000000       8.54247458      10.66400000
Mo       9.86400000      11.38996611      10.66400000
Mo      11.50800000      14.23745764      10.66400000
Mo      13.15200000      17.08494917      10.66400000
Mo      14.79600000      19.93244069      10.66400000
Mo      16.44000000      22.77993222      10.66400000
Mo      18.08400000      25.62742375      10.66400000
Mo      19.72800000      28.47491528      10.66400000
Mo      21.37200000      31.32240680      10.66400000
Mo      23.01600000      34.16989833      10.66400000
Mo      24.66000000      37.01738986      10.66400000
Mo      26.30400000      39.86488139      10.66400000
Mo      27.94800000      42.71237291      10.66400000
Mo      29.59200000      45.55986444      10.66400000
Mo      31.23600000      48.40735597      10.66400000
Mo      32.88000000      51.25484750      10.66400000
Mo      34.52400000      54.10233903      10.66400000
Mo      36.16800000      56.94983055      10.66400000
Mo      37.81200000      59.79732208      10.66400000
Mo      39.45600000      62.64481361      10.66400000
Mo      41.10000000      65.49230514      10.66400000
Mo      42.74400000      68.33979666      10.66400000
Mo      44.38800000      71.18728819      10.66400000
Mo      46.03200000      74.03477972      10.66400000
Mo      47.67600000      76.88227125      10.66400000
Mo      49.32000000      79.72976277      10.66400000
Mo      50.96400000      82.57725430      10.66400000
Mo      52.60800000      85.42474583      10.66400000
Mo      54.25200000      88.27223736      10.66400000
Mo      55.89600000      91.11972888      10.66400000
Mo      57.54000000      93.96722041      10.66400000
Mo      59.18400000      96.81471194      10.66400000
Mo      60.82800000      99.66220347      10.66400000
Mo      62.47200000     102.50969500      10.66400000
Mo      64.11600000     105.35718652      10.66400000
Mo      65.76000000     108.20467805      10.66400000
Mo      67.40400000     111.05216958      10.66400000
Mo      69.04800000     113.89966111      10.66400000
Mo      70.69200000     116.74715263      10.66400000
Mo      72.33600000     119.59464416      10.66400000
Mo      73.98000000     122.44213569      10.66400000
Mo      75.62400000     125.28962722      10.66400000
Mo      77.26800000     128.13711874      10.66400000
Mo      78.91200000     130.98461027      10.66400000
Mo      11.50800000       8.54247458      10.66400000
Mo      13.15200000      11.38996611      10.66400000
Mo      14.79600000      14.23745764      10.66400000
Mo      16.44000000      17.08494917      10.66400000
Mo      18.08400000      19.93244069      10.66400000
Mo      19.72800000      22.77993222      10.66400000
Mo      21.37200000      25.62742375      10.66400000
Mo      23.01600000      28.47491528      10.66400000
Mo      24.66000000      31.32240680      10.66400000
Mo      26.30400000      34.16989833      10.66400000
Mo      27.94800000      37.01738986      10.66400000
Mo      29.59200000      39.86488139      10.66400000
Mo      31.23600000      42.71237291      10.66400000
Mo      32.88000000      45.55986444      10.66400000
Mo      34.52400000      48.40735597      10.66400000
Mo      36.16800000      51.25484750      10.66400000
Mo      37.81200000      54.10233903      10.66400000
Mo      39.45600000      56.94983055      10.66400000
Mo      41.10000000      59.79732208      10.66400000
Mo      42.74400000      62.64481361      10.66400000
Mo      44.38800000      65.49230514      10.66400000
Mo      46.03200000      68.33979666      10.66400000
Mo      47.67600000      71.18728819      10.66400000
Mo      49.32000000      74.03477972      10.66400000
Mo      50.96400000      76.88227125      10.66400000
Mo      52.60800000      79.72976277      10.66400000
Mo      54.25200000      82.57725430      10.66400000
Mo      55.89600000      85.42474583      10.66400000
Mo      57.54000000      88.27223736      10.66400000
Mo      59.18400000      91.11972888      10.66400000
Mo      60.82800000      93.96722041      10.66400000
Mo      62.47200000      96.81471194      10.66400000
Mo      64.11600000      99.66220347      10.66400000
Mo      65.76000000     102.50969500      10.66400000
Mo      67.40400000     105.35718652      10.66400000
Mo      69.04800000     108.20467805      10.66400000
Mo      70.69200000     111.05216958      10.66400000
Mo      72.33600000     113.89966111      10.66400000
Mo      73.98000000     116.74715263      10.66400000
Mo      75.62400000     119.59464416      10.66400000
Mo      77.26800000     122.44213569      10.66400000
Mo      78.91200000     125.28962722      10.66400000
Mo      16.44000000      11.38996611      10.66400000
Mo      18.08400000      14.23745764      10.66400000
Mo      19.72800000      17.08494917      10.66400000
Mo      21.37200000      19.93244069      10.66400000
Mo      23.01600000      22.77993222      10.66400000
Mo      24.66000000      25.62742375      10.66400000
Mo      26.30400000      28.47491528      10.66400000
Mo      27.94800000      31.32240680      10.66400000
Mo      29.59200000      34.16989833      10.66400000
Mo      31.23600000      37.01738986      10.66400000
Mo      32.88000000      39.86488139      10.66400000
Mo      34.52400000      42.71237291      10.66400000
Mo      36.16800000      45.55986444      10.66400000
Mo      37.81200000      48.40735597      10.66400000
Mo      39.45600000      51.25484750      10.66400000
Mo      41.10000000      54.10233903      10.66400000
Mo      42.74400000      56.94983055      10.66400000
Mo      44.38800000      59.79732208      10.66400000
Mo      46.03200000      62.64481361      10.66400000
Mo      47.67600000      65.49230514      10.66400000
Mo      49.32000000      68.33979666      10.66400000
Mo      50.96400000      71.18728819      10.66400000
Mo      52.60800000      74.03477972      10.66400000
Mo      54.25200000      76.88227125      10.66400000
Mo      55.89600000      79.72976277      10.66400000
Mo      57.54000000      82.57725430      10.66400000
Mo      59.18400000      85.42474583      10.66400000
Mo      60.82800000      88.27223736      10.66400000
Mo      62.47200000      91.11972888      10.66400000
Mo      64.11600000      93.96722041      10.66400000
Mo      65.76000000      96.81471194      10.66400000
Mo      67.40400000      99.66220347      10.66400000
Mo      69.04800000     102.50969500      10.66400000
Mo      70.69200000     105.35718652      10.66400000
Mo      72.33600000     108.20467805      10.66400000
Mo      73.98000000     111.05216958      10.66400000
Mo      75.62400000     113.89966111      10.66400000
Mo      77.26800000     116.74715263      10.66400000
Mo      78.91200000     119.59464416      10.66400000
Mo      21.37200000      14.23745764      10.66400000
Mo      23.01600000      17.08494917      10.66400000
Mo      24.66000000      19.93244069      10.66400000
Mo      26.30400000      22.77993222      10.66400000
Mo      27.94800000      25.62742375      10.66400000
Mo      29.59200000      28.47491528      10.66400000
Mo      31.23600000      31.32240680      10.66400000
Mo      32.88000000      34.16989833      10.66400000
Mo      34.52400000      37.01738986      10.66400000
Mo      36.16800000      39.86488139      10.66400000
Mo      37.81200000      42.71237291      10.66400000
Mo      39.45600000      45.55986444      10.66400000
Mo      41.10000000      48.40735597      10.66400000
Mo      42.74400000      51.25484750      10.66400000
Mo      44.38800000      54.10233903      10.66400000
Mo      46.03200000      56.94983055      10.66400000
Mo      47.67600000      59.79732208      10.66400000
Mo      49.32000000      62.64481361      10.66400000
Mo      50.96400000      65.49230514      10.66400000
Mo      52.60800000      68.33979666      10.66400000
Mo      54.25200000      71.18728819      10.66400000
Mo      55.89600000      74.03477972      10.66400000
Mo      57.54000000      76.88227125      10.66400000
Mo      59.18400000      79.72976277      10.66400000
Mo      60.82800000      82.57725430      10.66400000
Mo      62.47200000      85.42474583      10.66400000
Mo      64.11600000      88.27223736      10.66400000
Mo      65.76000000      91.11972888      10.66400000
Mo      67.40400000      93.96722041      10.66400000
Mo      69.04800000      96.81471194      10.66400000
Mo      70.69200000      99.66220347      10.66400000
Mo      72.33600000     102.50969500      10.66400000
Mo      73.98000000     105.35718652      10.66400000
Mo      75.62400000     108.20467805      10.66400000
Mo      77.26800000     111.05216958      10.66400000
Mo      78.91200000     113.89966111      10.66400000
Mo      26.30400000      17.08494917      10.66400000
Mo      27.94800000      19.93244069      10.66400000
Mo      29.59200000      22.77993222      10.66400000
Mo      31.23600000      25.62742375      10.66400000
Mo      32.88000000      28.47491528      10.66400000
Mo      34.52400000      31.32240680      10.66400000
Mo      36.16800000      34.16989833      10.66400000
Mo      37.81200000      37.01738986      10.66400000
Mo      39.45600000      39.86488139      10.66400000
Mo      41.10000000      42.71237291      10.66400000
Mo      42.74400000      45.55986444      10.66400000
Mo      44.38800000      48.40735597      10.66400000
Mo      46.03200000      51.25484750      10.66400000
Mo      47.67600000      54.10233903      10.66400000
Mo      49.32000000      56.94983055      10.66400000
Mo      50.96400000      59.79732208      10.66400000
Mo      52.60800000      62.64481361      10.66400000
Mo      54.25200000      65.49230514      10.66400000
Mo      55.89600000      68.33979666      10.66400000
Mo      57.54000000      71.18728819      10.66400000
Mo      59.18400000      74.03477972      10.66400000
Mo      60.82800000      76.88227125      10.66400000
Mo      62.47200000      79.72976277      10.66400000
Mo      64.11600000      82.57725430      10.66400000
Mo      65.76000000      85.42474583      10.66400000
Mo      67.40400000      88.27223736      10.66400000
Mo      69.04800000      91.11972888      10.66400000
Mo      70.69200000      93.96722041      10.66400000
Mo      72.33600000      96.81471194      10.66400000
Mo      73.98000000      99.66220347      10.66400000
Mo      75.62400000     102.50969500      10.66400000
Mo      77.26800000     105.35718652      10.66400000
Mo      78.91200000     108.20467805      10.66400000
Mo      31.23600000      19.93244069      10.66400000
Mo      32.88000000      22.77993222      10.66400000
Mo      34.52400000      25.62742375      10.66400000
Mo      36.16800000      28.47491528      10.66400000
Mo      37.81200000      31.32240680      10.66400000
Mo      39.45600000      34.16989833      10.66400000
Mo      41.10000000      37.01738986      10.66400000
Mo      42.74400000      39.86488139      10.66400000
Mo      44.38800000      42.71237291      10.66400000
Mo      46.03200000      45.55986444      10.66400000
Mo      47.67600000      48.40735597      10.66400000
Mo      49.32000000      51.25484750      10.66400000
Mo      50.96400000      54.10233903      10.66400000
Mo      52.60800000      56.94983055      10.66400000
Mo      54.25200000      59.79732208      10.66400000
Mo      55.89600000      62.64481361      10.66400000
Mo      57.54000000      65.49230514      10.66400000
Mo      59.18400000      68.33979666      10.66400000
Mo      60.82800000      71.18728819      10.66400000
Mo      62.47200000      74.03477972      10.66400000
Mo      64.11600000      76.88227125      10.66400000
Mo      65.76000000      79.72976277      10.66400000
Mo      67.40400000      82.57725430      10.66400000
Mo      69.04800000      85.42474583      10.66400000
Mo      70.69200000      88.27223736      10.66400000
Mo      72.33600000      91.11972888      10.66400000
Mo      73.98000000      93.96722041      10.66400000
Mo      75.62400000      96.81471194      10.66400000
Mo      77.26800000      99.66220347      10.66400000
Mo      78.91200000     102.50969500      10.66400000
Mo      36.16800000      22.77993222      10.66400000
Mo      37.81200000      25.62742375      10.66400000
Mo      39.45600000      28.47491528      10.66400000
Mo      41.10000000      31.32240680      10.66400000
Mo      42.74400000      34.16989833      10.66400000
Mo      44.38800000      37.01738986      10.66400000
Mo      46.03200000      39.86488139      10.66400000
Mo      47.67600000      42.71237291      10.66400000
Mo      49.32000000      45.55986444      10.66400000
Mo      50.96400000      48.40735597      10.66400000
Mo      52.60800000      51.25484750      10.66400000
Mo      54.25200000      54.10233903      10.66400000
Mo      55.89600000      56.94983055      10.66400000
Mo      57.54000000      59.79732208      10.66400000
Mo      59.18400000      62.64481361      10.66400000
Mo      60.82800000      65.49230514      10.66400000
Mo      62.47200000      68.33979666      10.66400000
Mo      64.11600000      71.18728819      10.66400000
Mo      65.76000000      74.03477972      10.66400000
Mo      67.40400000      76.88227125      10.66400000
Mo      69.04800000      79.72976277      10.66400000
Mo      70.69200000      82.57725430      10.66400000
Mo      72.33600000      85.42474583      10.66400000
Mo      73.98000000      88.27223736      10.66400000
Mo      75.62400000      91.11972888      10.66400000
Mo      77.26800000      93.96722041      10.66400000
Mo      78.91200000      96.81471194      10.66400000
Mo      41.10000000      25.62742375      10.66400000
Mo      42.74400000      28.47491528      10.66400000
Mo      44.38800000      31.32240680      10.66400000
Mo      46.03200000      34.16989833      10.66400000
Mo      47.67600000      37.01738986      10.66400000
Mo      49.32000000      39.86488139      10.66400000
Mo      50.96400000      42.71237291      10.66400000
Mo      52.60800000      45.55986444      10.66400000
Mo      54.25200000      48.40735597      10.66400000
Mo      55.89600000      51.25484750      10.66400000
Mo      57.54000000      54.10233903      10.66400000
Mo      59.18400000      56.94983055      10.66400000
Mo      60.82800000      59.79732208      10.66400000
Mo      62.47200000      62.64481361      10.66400000
Mo      64.11600000      65.49230514      10.66400000
Mo      65.76000000      68.33979666      10.66400000
Mo      67.40400000      71.18728819      10.66400000
Mo      69.04800000      74.03477972      10.66400000
Mo      70.69200000      76.88227125      10.66400000
Mo      72.33600000      79.72976277      10.66400000
Mo      73.98000000      82.57725430      10.66400000
Mo      75.62400000      85.42474583      10.66400000
Mo      77.26800000      88.27223736      10.66400000
Mo      78.91200000      91.11972888      10.66400000
Mo      46.03200000      28.47491528      10.66400000
Mo      47.67600000      31.32240680      10.66400000
Mo      49.32000000      34.16989833      10.66400000
Mo      50.96400000      37.01738986      10.66400000
Mo      52.60800000      39.86488139      10.66400000
Mo      54.25200000      42.71237291      10.66400000
Mo      55.89600000      45.55986444      10.66400000
Mo      57.54000000      48.40735597      10.66400000
Mo      59.18400000      51.25484750      10.66400000
Mo      60.82800000      54.10233903      10.66400000
Mo      62.47200000      56.94983055      10.66400000
Mo      64.11600000      59.79732208      10.66400000
Mo      65.76000000      62.64481361      10.66400000
Mo      67.40400000      65.49230514      10.66400000
Mo      69.04800000      68.33979666      10.66400000
Mo      70.69200000      71.18728819      10.66400000
Mo      72.33600000      74.03477972      10.66400000
Mo      73.98000000      76.88227125      10.66400000
Mo      75.62400000      79.72976277      10.66400000
Mo      77.26800000      82.57725430      10.66400000
Mo      78.91200000      85.42474583      10.66400000
Mo      50.96400000      31.32240680      10.66400000
Mo      52.60800000      34.16989833      10.66400000
Mo      54.25200000      37.01738986      10.66400000
Mo      55.89600000      39.86488139      10.66400000
Mo      57.54000000      42.71237291      10.66400000
Mo      59.18400000      45.55986444      10.66400000
Mo      60.82800000      48.40735597      10.66400000
Mo      62.47200000      51.25484750      10.66400000
Mo      64.11600000      54.10233903      10.66400000
Mo      65.76000000      56.94983055      10.66400000
Mo      67.40400000      59.79732208      10.66400000
Mo      69.04800000      62.64481361      10.66400000
Mo      70.69200000      65.49230514      10.66400000
Mo      72.33600000      68.33979666      10.66400000
Mo      73.98000000      71.18728819      10.66400000
Mo      75.62400000      74.03477972      10.66400000
Mo      77.26800000      76.88227125      10.66400000
Mo      78.91200000      79.72976277      10.66400000
Mo      55.89600000      34.16989833      10.66400000
Mo      57.54000000      37.01738986      10.66400000
Mo      59.18400000      39.86488139      10.66400000
Mo      60.82800000      42.71237291      10.66400000
Mo      62.47200000      45.55986444      10.66400000
Mo      64.11600000      48.40735597      10.66400000
Mo      65.76000000      51.25484750      10.66400000
Mo      67.40400000      54.10233903      10.66400000
Mo      69.04800000      56.94983055      10.66400000
Mo      70.69200000      59.79732208      10.66400000
Mo      72.33600000      62.64481361      10.66400000
Mo      73.98000000      65.49230514      10.66400000
Mo      75.62400000      68.33979666      10.66400000
Mo      77.26800000      71.18728819      10.66400000
Mo      78.91200000      74.03477972      10.66400000
Mo      60.82800000      37.01738986      10.66400000
Mo      62.47200000      39.86488139      10.66400000
Mo      64.11600000      42.71237291      10.66400000
Mo      65.76000000      45.55986444      10.66400000
Mo      67.40400000      48.40735597      10.66400000
Mo      69.04800000      51.25484750      10.66400000
Mo      70.69200000      54.10233903      10.66400000
Mo      72.33600000      56.94983055      10.66400000
Mo      73.98000000      59.79732208      10.66400000
Mo      75.62400000      62.64481361      10.66400000
Mo      77.26800000      65.49230514      10.66400000
Mo      78.91200000      68.33979666      10.66400000
Mo      65.76000000      39.86488139      10.66400000
Mo      67.40400000      42.71237291      10.66400000
Mo      69.04800000      45.55986444      10.66400000
Mo      70.69200000      48.40735597      10.66400000
Mo      72.33600000      51.25484750      10.66400000
Mo      73.98000000      54.10233903      10.66400000
Mo      75.62400000      56.94983055      10.66400000
Mo      77.26800000      59.79732208      10.66400000
Mo      78.91200000      62.64481361      10.66400000
Mo      70.69200000      42.71237291      10.66400000
Mo      72.33600000      45.55986444      10.66400000
Mo      73.98000000      48.40735597      10.66400000
Mo      75.62400000      51.25484750      10.66400000
Mo      77.26800000      54.10233903      10.66400000
Mo      78.91200000      56.94983055      10.66400000
Mo      75.62400000      45.55986444      10.66400000
Mo      77.26800000      48.40735597      10.66400000
Mo      78.91200000      51.25484750      10.66400000
Se       1.64400000      92.06889273      12.32800000
Se       3.28800000      94.91638425      12.32800000
Se       4.93200000      97.76387578      12.32800000
Se       1.64400000      86.37390967      12.32800000
Se       3.28800000      89.22140120      12.32800000
Se       4.93200000      92.06889273      12.32800000
Se       6.57600000      94.91638425      12.32800000
Se       8.22000000      97.76387578      12.32800000
Se       9.86400000     100.61136731      12.32800000
Se       1.64400000      80.67892662      12.32800000
Se       3.28800000      83.52641814      12.32800000
Se       4.93200000      86.37390967      12.32800000
Se       6.57600000      89.22140120      12.32800000
Se       8.22000000      92.06889273      12.32800000
Se       9.86400000      94.91638425      12.32800000
Se      11.50800000      97.76387578      12.32800000
Se      13.15200000     100.61136731      12.32800000
Se      14.79600000     103.45885884      12.32800000
Se       1.64400000      74.98394356      12.32800000
Se       3.28800000      77.83143509      12.32800000
Se       4.93200000      80.67892662      12.32800000
Se       6.57600000      83.52641814      12.32800000
Se       8.22000000      86.37390967      12.32800000
Se       9.86400000      89.22140120      12.32800000
Se      11.50800000      92.06889273      12.32800000
Se      13.15200000      94.91638425      12.32800000
Se      14.79600000      97.76387578      12.32800000
Se      16.44000000     100.61136731      12.32800000
Se      18.08400000     103.45885884      12.32800000
Se      19.72800000     106.30635037      12.32800000
Se       1.64400000      69.28896051      12.32800000
Se       3.28800000      72.13645203      12.32800000
Se       4.93200000      74.98394356      12.32800000
Se       6.57600000      77.83143509      12.32800000
Se       8.22000000      80.67892662      12.32800000
Se       9.86400000      83.52641814      12.32800000
Se      11.50800000      86.37390967      12.32800000
Se      13.15200000      89.22140120      12.32800000
Se      14.79600000      92.06889273      12.32800000
Se      16.44000000      94.91638425      12.32800000
Se      18.08400000      97.76387578      12.32800000
Se      19.72800000     100.61136731      12.32800000
Se      21.37200000     103.45885884      12.32800000
Se      23.01600000     106.30635037      12.32800000
Se      24.66000000     109.15384189      12.32800000
Se       1.64400000      63.59397745      12.32800000
Se       3.28800000      66.44146898      12.32800000
Se       4.93200000      69.28896051      12.32800000
Se       6.57600000      72.13645203      12.32800000
Se       8.22000000      74.98394356      12.32800000
Se       9.86400000      77.83143509      12.32800000
Se      11.50800000      80.67892662      12.32800000
Se      13.15200000      83.52641814      12.32800000
Se      14.79600000      86.37390967      12.32800000
Se      16.44000000      89.22140120      12.32800000
Se      18.08400000      92.06889273      12.32800000
Se      19.72800000      94.91638425      12.32800000
Se      21.37200000      97.76387578      12.32800000
Se      23.01600000     100.61136731      12.32800000
Se      24.66000000     103.45885884      12.32800000
Se      26.30400000     106.30635037      12.32800000
Se      27.94800000     109.15384189      12.32800000
Se      29.59200000     112.00133342      12.32800000
Se       1.64400000      57.89899440      12.32800000
Se       3.28800000      60.74648592      12.32800000
Se       4.93200000      63.59397745      12.32800000
Se       6.57600000      66.44146898      12.32800000
Se       8.22000000      69.28896051      12.32800000
Se       9.86400000      72.13645203      12.32800000
Se      11.50800000      74.98394356      12.32800000
Se      13.15200000      77.83143509      12.32800000
Se      14.79600000      80.67892662      12.32800000
Se      16.44000000      83.52641814      12.32800000
Se      18.08400000      86.37390967      12.32800000
Se      19.72800000      89.22140120      12.32800000
Se      21.37200000      92.06889273      12.32800000
Se      23.01600000      94.91638425      12.32800000
Se      24.66000000      97.76387578      12.32800000
Se      26.30400000     100.61136731      12.32800000
Se      27.94800000     103.45885884      12.32800000
Se      29.59200000     106.30635037      12.32800000
Se      31.23600000     109.15384189      12.32800000
Se      32.88000000     112.00133342      12.32800000
Se      34.52400000     114.84882495      12.32800000
Se       1.64400000      52.20401134      12.32800000
Se       3.28800000      55.05150287      12.32800000
Se       4.93200000      57.89899440      12.32800000
Se       6.57600000      60.74648592      12.32800000
Se       8.22000000      63.59397745      12.32800000
Se       9.86400000      66.44146898      12.32800000
Se      11.50800000      69.28896051      12.32800000
Se      13.15200000      72.13645203      12.32800000
Se      14.79600000      74.98394356      12.32800000
Se      16.44000000      77.83143509      12.32800000
Se      18.08400000      80.67892662      12.32800000
Se      19.72800000      83.52641814      12.32800000
Se      21.37200000      86.37390967      12.32800000
Se      23.01600000      89.22140120      12.32800000
Se      24.66000000      92.06889273      12.32800000
Se      26.30400000      94.91638425      12.32800000
Se      27.94800000      97.76387578      12.32800000
Se      29.59200000     100.61136731      12.32800000
Se      31.23600000     103.45885884      12.32800000
Se      32.88000000     106.30635037      12.32800000
Se      34.52400000     109.15384189      12.32800000
Se      36.16800000     112.00133342      12.32800000
Se      37.81200000     114.84882495      12.32800000
Se      39.45600000     117.69631648      12.32800000
Se       1.64400000      46.50902828      12.32800000
Se       3.28800000      49.35651981      12.32800000
Se       4.93200000      52.20401134      12.32800000
Se       6.57600000      55.05150287      12.32800000
Se       8.22000000      57.89899440      12.32800000
Se       9.86400000      60.74648592      12.32800000
Se      11.50800000      63.59397745      12.32800000
Se      13.15200000      66.44146898      12.32800000
Se      14.79600000      69.28896051      12.32800000
Se      16.44000000      72.13645203      12.32800000
Se      18.08400000      74.98394356      12.32800000
Se      19.72800000      77.83143509      12.32800000
Se      21.37200000      80.67892662      12.32800000
Se      23.01600000      83.52641814      12.32800000
Se      24.66000000      86.37390967      12.32800000
Se      26.30400000      89.22140120      12.32800000
Se      27.94800000      92.06889273      12.32800000
Se      29.59200000      94.91638425      12.32800000
Se      31.23600000      97.76387578      12.32800000
Se      32.88000000     100.61136731      12.32800000
Se      34.52400000     103.45885884      12.32800000
Se      36.16800000     106.30635037      12.32800000
Se      37.81200000     109.15384189      12.32800000
Se      39.45600000     112.00133342      12.32800000
Se      41.10000000     114.84882495      12.32800000
Se      42.74400000     117.69631648      12.32800000
Se      44.38800000     120.54380800      12.32800000
Se       1.64400000      40.81404523      12.32800000
Se       3.28800000      43.66153676      12.32800000
Se       4.93200000      46.50902828      12.32800000
Se       6.57600000      49.35651981      12.32800000
Se       8.22000000      52.20401134      12.32800000
Se       9.86400000      55.05150287      12.32800000
Se      11.50800000      57.89899440      12.32800000
Se      13.15200000      60.74648592      12.32800000
Se      14.79600000      63.59397745      12.32800000
Se      16.44000000      66.44146898      12.32800000
Se      18.08400000      69.28896051      12.32800000
Se      19.72800000      72.13645203      12.32800000
Se      21.37200000      74.98394356      12.32800000
Se      23.01600000      77.83143509      12.32800000
Se      24.66000000      80.67892662      12.32800000
Se      26.30400000      83.52641814      12.32800000
Se      27.94800000      86.37390967      12.32800000
Se      29.59200000      89.22140120      12.32800000
Se      31.23600000      92.06889273      12.32800000
Se      32.88000000      94.91638425      12.32800000
Se      34.52400000      97.76387578      12.32800000
Se      36.16800000     100.61136731      12.32800000
Se      37.81200000     103.45885884      12.32800000
Se      39.45600000     106.30635037      12.32800000
Se      41.10000000     109.15384189      12.32800000
Se      42.74400000     112.00133342      12.32800000
Se      44.38800000     114.84882495      12.32800000
Se      46.03200000     117.69631648      12.32800000
Se      47.67600000     120.54380800      12.32800000
Se      49.32000000     123.39129953      12.32800000
Se       1.64400000      35.11906217      12.32800000
Se       3.28800000      37.96655370      12.32800000
Se       4.93200000      40.81404523      12.32800000
Se       6.57600000      43.66153676      12.32800000
Se       8.22000000      46.50902828      12.32800000
Se       9.86400000      49.35651981      12.32800000
Se      11.50800000      52.20401134      12.32800000
Se      13.15200000      55.05150287      12.32800000
Se      14.79600000      57.89899440      12.32800000
Se      16.44000000      60.74648592      12.32800000
Se      18.08400000      63.59397745      12.32800000
Se      19.72800000      66.44146898      12.32800000
Se      21.37200000      69.28896051      12.32800000
Se      23.01600000      72.13645203      12.32800000
Se      24.66000000      74.98394356      12.32800000
Se      26.30400000      77.83143509      12.32800000
Se      27.94800000      80.67892662      12.32800000
Se      29.59200000      83.52641814      12.32800000
Se      31.23600000      86.37390967      12.32800000
Se      32.88000000      89.22140120      12.32800000
Se      34.52400000      92.06889273      12.32800000
Se      36.16800000      94.91638425      12.32800000
Se      37.81200000      97.76387578      12.32800000
Se      39.45600000     100.61136731      12.32800000
Se      41.10000000     103.45885884      12.32800000
Se      42.74400000     106.30635037      12.32800000
Se      44.38800000     109.15384189      12.32800000
Se      46.03200000     112.00133342      12.32800000
Se      47.67600000     114.84882495      12.32800000
Se      49.32000000     117.69631648      12.32800000
Se      50.96400000     120.54380800      12.32800000
Se      52.60800000     123.39129953      12.32800000
Se      54.25200000     126.23879106      12.32800000
Se       1.64400000      29.42407912      12.32800000
Se       3.28800000      32.27157065      12.32800000
Se       4.93200000      35.11906217      12.32800000
Se       6.57600000      37.96655370      12.32800000
Se       8.22000000      40.81404523      12.32800000
Se       9.86400000      43.66153676      12.32800000
Se      11.50800000      46.50902828      12.32800000
Se      13.15200000      49.35651981      12.32800000
Se      14.79600000      52.20401134      12.32800000
Se      16.44000000      55.05150287      12.32800000
Se      18.08400000      57.89899440      12.32800000
Se      19.72800000      60.74648592      12.32800000
Se      21.37200000      63.59397745      12.32800000
Se      23.01600000      66.44146898      12.32800000
Se      24.66000000      69.28896051      12.32800000
Se      26.30400000      72.13645203      12.32800000
Se      27.94800000      74.98394356      12.32800000
Se      29.59200000      77.83143509      12.32800000
Se      31.23600000      80.67892662      12.32800000
Se      32.88000000      83.52641814      12.32800000
Se      34.52400000      86.37390967      12.32800000
Se      36.16800000      89.22140120      12.32800000
Se      37.81200000      92.06889273      12.32800000
Se      39.45600000      94.91638425      12.32800000
Se      41.10000000      97.76387578      12.32800000
Se      42.74400000     100.61136731      12.32800000
Se      44.38800000     103.45885884      12.32800000
Se      46.03200000     106.30635037      12.32800000
Se      47.67600000     109.15384189      12.32800000
Se      49.32000000     112.00133342      12.32800000
Se      50.96400000     114.84882495      12.32800000
Se      52.60800000     117.69631648      12.32800000
Se      54.25200000     120.54380800      12.32800000
Se      55.89600000     123.39129953      12.32800000
Se      57.54000000     126.23879106      12.32800000
Se      59.18400000     129.08628259      12.32800000
Se       1.64400000      23.72909606      12.32800000
Se       3.28800000      26.57658759      12.32800000
Se       4.93200000      29.42407912      12.32800000
Se       6.57600000      32.27157065      12.32800000
Se       8.22000000      35.11906217      12.32800000
Se       9.86400000      37.96655370      12.32800000
Se      11.50800000      40.81404523      12.32800000
Se      13.15200000      43.66153676      12.32800000
Se      14.79600000      46.50902828      12.32800000
Se      16.44000000      49.35651981      12.32800000
Se      18.08400000      52.20401134      12.32800000
Se      19.72800000      55.05150287      12.32800000
Se      21.37200000      57.89899440      12.32800000
Se      23.01600000      60.74648592      12.32800000
Se      24.66000000      63.59397745      12.32800000
Se      26.30400000      66.44146898      12.32800000
Se      27.94800000      69.28896051      12.32800000
Se      29.59200000      72.13645203      12.32800000
Se      31.23600000      74.98394356      12.32800000
Se      32.88000000      77.83143509      12.32800000
Se      34.52400000      80.67892662      12.32800000
Se      36.16800000      83.52641814      12.32800000
Se      37.81200000      86.37390967      12.32800000
Se      39.45600000      89.22140120      12.32800000
Se      41.10000000      92.06889273      12.32800000
Se      42.74400000      94.91638425      12.32800000
Se      44.38800000      97.76387578      12.32800000
Se      46.03200000     100.61136731      12.32800000
Se      47.67600000     103.45885884      12.32800000
Se      49.32000000     106.30635037      12.32800000
Se      50.96400000     109.15384189      12.32800000
Se      52.60800000     112.00133342      12.32800000
Se      54.25200000     114.84882495      12.32800000
Se      55.89600000     117.69631648      12.32800000
Se      57.54000000     120.54380800      12.32800000
Se      59.18400000     123.39129953      12.32800000
Se      60.82800000     126.23879106      12.32800000
Se      62.47200000     129.08628259      12.32800000
Se      64.11600000     131.93377411      12.32800000
Se       1.64400000      18.03411301      12.32800000
Se       3.28800000      20.88160454      12.32800000
Se       4.93200000      23.72909606      12.32800000
Se       6.57600000      26.57658759      12.32800000
Se       8.22000000      29.42407912      12.32800000
Se       9.86400000      32.27157065      12.32800000
Se      11.50800000      35.11906217      12.32800000
Se      13.15200000      37.96655370      12.32800000
Se      14.79600000      40.81404523      12.32800000
Se      16.44000000      43.66153676      12.32800000
Se      18.08400000      46.50902828      12.32800000
Se      19.72800000      49.35651981      12.32800000
Se      21.37200000      52.20401134      12.32800000
Se      23.01600000      55.05150287      12.32800000
Se      24.66000000      57.89899440      12.32800000
Se      26.30400000      60.74648592      12.32800000
Se      27.94800000      63.59397745      12.32800000
Se      29.59200000      66.44146898      12.32800000
Se      31.23600000      69.28896051      12.32800000
Se      32.88000000      72.13645203      12.32800000
Se      34.52400000      74.98394356      12.32800000
Se      36.16800000      77.83143509      12.32800000
Se      37.81200000      80.67892662      12.32800000
Se      39.45600000      83.52641814      12.32800000
Se      41.10000000      86.37390967      12.32800000
Se      42.74400000      89.22140120      12.32800000
Se      44.38800000      92.06889273      12.32800000
Se      46.03200000      94.91638425      12.32800000
Se      47.67600000      97.76387578      12.32800000
Se      49.32000000     100.61136731      12.32800000
Se      50.96400000     103.45885884      12.32800000
Se      52.60800000     106.30635037      12.32800000
Se      54.25200000     109.15384189      12.32800000
Se      55.89600000     112.00133342      12.32800000
Se      57.54000000     114.84882495      12.32800000
Se      59.18400000     117.69631648      12.32800000
Se      60.82800000     120.54380800      12.32800000
Se      62.47200000     123.39129953      12.32800000
Se      64.11600000     126.23879106      12.32800000
Se      65.76000000     129.08628259      12.32800000
Se      67.40400000     131.93377411      12.32800000
Se      69.04800000     134.78126564      12.32800000
Se       1.64400000      12.33912995      12.32800000
Se       3.28800000      15.18662148      12.32800000
Se       4.93200000      18.03411301      12.32800000
Se       6.57600000      20.88160454      12.32800000
Se       8.22000000      23.72909606      12.32800000
Se       9.86400000      26.57658759      12.32800000
Se      11.50800000      29.42407912      12.32800000
Se      13.15200000      32.27157065      12.32800000
Se      14.79600000      35.11906217      12.32800000
Se      16.44000000      37.96655370      12.32800000
Se      18.08400000      40.81404523      12.32800000
Se      19.72800000      43.66153676      12.32800000
Se      21.37200000      46.50902828      12.32800000
Se      23.01600000      49.35651981      12.32800000
Se      24.66000000      52.20401134      12.32800000
Se      26.30400000      55.05150287      12.32800000
Se      27.94800000      57.89899440      12.32800000
Se      29.59200000      60.74648592      12.32800000
Se      31.23600000      63.59397745      12.32800000
Se      32.88000000      66.44146898      12.32800000
Se      34.52400000      69.28896051      12.32800000
Se      36.16800000      72.13645203      12.32800000
Se      37.81200000      74.98394356      12.32800000
Se      39.45600000      77.83143509      12.32800000
Se      41.10000000      80.67892662      12.32800000
Se      42.74400000      83.52641814      12.32800000
Se      44.38800000      86.37390967      12.32800000
Se      46.03200000      89.22140120      12.32800000
Se      47.67600000      92.06889273      12.32800000
Se      49.32000000      94.91638425      12.32800000
Se      50.96400000      97.76387578      12.32800000
Se      52.60800000     100.61136731      12.32800000
Se      54.25200000     103.45885884      12.32800000
Se      55.89600000     106.30635037      12.32800000
Se      57.54000000     109.15384189      12.32800000
Se      59.18400000     112.00133342      12.32800000
Se      60.82800000     114.84882495      12.32800000
Se      62.47200000     117.69631648      12.32800000
Se      64.11600000     120.54380800      12.32800000
Se      65.76000000     123.39129953      12.32800000
Se      67.40400000     126.23879106      12.32800000
Se      69.04800000     129.08628259      12.32800000
Se      70.69200000     131.93377411      12.32800000
Se      72.33600000     134.78126564      12.32800000
Se      73.98000000     137.62875717      12.32800000
Se       1.64400000       6.64414690      12.32800000
Se       3.28800000       9.49163843      12.32800000
Se       4.93200000      12.33912995      12.32800000
Se       6.57600000      15.18662148      12.32800000
Se       8.22000000      18.03411301      12.32800000
Se       9.86400000      20.88160454      12.32800000
Se      11.50800000      23.72909606      12.32800000
Se      13.15200000      26.57658759      12.32800000
Se      14.79600000      29.42407912      12.32800000
Se      16.44000000      32.27157065      12.32800000
Se      18.08400000      35.11906217      12.32800000
Se      19.72800000      37.96655370      12.32800000
Se      21.37200000      40.81404523      12.32800000
Se      23.01600000      43.66153676      12.32800000
Se      24.66000000      46.50902828      12.32800000
Se      26.30400000      49.35651981      12.32800000
Se      27.94800000      52.20401134      12.32800000
Se      29.59200000      55.05150287      12.32800000
Se      31.23600000      57.89899440      12.32800000
Se      32.88000000      60.74648592      12.32800000
Se      34.52400000      63.59397745      12.32800000
Se      36.16800000      66.44146898      12.32800000
Se      37.81200000      69.28896051      12.32800000
Se      39.45600000      72.13645203      12.32800000
Se      41.10000000      74.98394356      12.32800000
Se      42.74400000      77.83143509      12.32800000
Se      44.38800000      80.67892662      12.32800000
Se      46.03200000      83.52641814      12.32800000
Se      47.67600000      86.37390967      12.32800000
Se      49.32000000      89.22140120      12.32800000
Se      50.96400000      92.06889273      12.32800000
Se      52.60800000      94.91638425      12.32800000
Se      54.25200000      97.76387578      12.32800000
Se      55.89600000     100.61136731      12.32800000
Se      57.54000000     103.45885884      12.32800000
Se      59.18400000     106.30635037      12.32800000
Se      60.82800000     109.15384189      12.32800000
Se      62.47200000     112.00133342      12.32800000
Se      64.11600000     114.84882495      12.32800000
Se      65.76000000     117.69631648      12.32800000
Se      67.40400000     120.54380800      12.32800000
Se      69.04800000     123.39129953      12.32800000
Se      70.69200000     126.23879106      12.32800000
Se      72.33600000     129.08628259      12.32800000
Se      73.98000000     131.93377411      12.32800000
Se      75.62400000     134.78126564      12.32800000
Se      77.26800000     137.62875717      12.32800000
Se      78.91200000     140.47624870      12.32800000
Se       0.00000000      94.91638425      12.32800000
Se       3.28800000       3.79665537      12.32800000
Se       4.93200000       6.64414690      12.32800000
Se       6.57600000       9.49163843      12.32800000
Se       8.22000000      12.33912995      12.32800000
Se       9.86400000      15.18662148      12.32800000
Se      11.50800000      18.03411301      12.32800000
Se      13.15200000      20.88160454      12.32800000
Se      14.79600000      23.72909606      12.32800000
Se      16.44000000      26.57658759      12.32800000
Se      18.08400000      29.42407912      12.32800000
Se      19.72800000      32.27157065      12.32800000
Se      21.37200000      35.11906217      12.32800000
Se      23.01600000      37.96655370      12.32800000
Se      24.66000000      40.81404523      12.32800000
Se      26.30400000      43.66153676      12.32800000
Se      27.94800000      46.50902828      12.32800000
Se      29.59200000      49.35651981      12.32800000
Se      31.23600000      52.20401134      12.32800000
Se      32.88000000      55.05150287      12.32800000
Se      34.52400000      57.89899440      12.32800000
Se      36.16800000      60.74648592      12.32800000
Se      37.81200000      63.59397745      12.32800000
Se      39.45600000      66.44146898      12.32800000
Se      41.10000000      69.28896051      12.32800000
Se      42.74400000      72.13645203      12.32800000
Se      44.38800000      74.98394356      12.32800000
Se      46.03200000      77.83143509      12.32800000
Se      47.67600000      80.67892662      12.32800000
Se      49.32000000      83.52641814      12.32800000
Se      50.96400000      86.37390967      12.32800000
Se      52.60800000      89.22140120      12.32800000
Se      54.25200000      92.06889273      12.32800000
Se      55.89600000      94.91638425      12.32800000
Se      57.54000000      97.76387578      12.32800000
Se      59.18400000     100.61136731      12.32800000
Se      60.82800000     103.45885884      12.32800000
Se      62.47200000     106.30635037      12.32800000
Se      64.11600000     109.15384189      12.32800000
Se      65.76000000     112.00133342      12.32800000
Se      67.40400000     114.84882495      12.32800000
Se      69.04800000     117.69631648      12.32800000
Se      70.69200000     120.54380800      12.32800000
Se      72.33600000     123.39129953      12.32800000
Se      73.98000000     126.23879106      12.32800000
Se      75.62400000     129.08628259      12.32800000
Se      77.26800000     131.93377411      12.32800000
Se      78.91200000     134.78126564      12.32800000
Se       0.00000000      89.22140120      12.32800000
Se       8.22000000       6.64414690      12.32800000
Se       9.86400000       9.49163843      12.32800000
Se      11.50800000      12.33912995      12.32800000
Se      13.15200000      15.18662148      12.32800000
Se      14.79600000      18.03411301      12.32800000
Se      16.44000000      20.88160454      12.32800000
Se      18.08400000      23.72909606      12.32800000
Se      19.72800000      26.57658759      12.32800000
Se      21.37200000      29.42407912      12.32800000
Se      23.01600000      32.27157065      12.32800000
Se      24.66000000      35.11906217      12.32800000
Se      26.30400000      37.96655370      12.32800000
Se      27.94800000      40.81404523      12.32800000
Se      29.59200000      43.66153676      12.32800000
Se      31.23600000      46.50902828      12.32800000
Se      32.88000000      49.35651981      12.32800000
Se      34.52400000      52.20401134      12.32800000
Se      36.16800000      55.05150287      12.32800000
Se      37.81200000      57.89899440      12.32800000
Se      39.45600000      60.74648592      12.32800000
Se      41.10000000      63.59397745      12.32800000
Se      42.74400000      66.44146898      12.32800000
Se      44.38800000      69.28896051      12.32800000
Se      46.03200000      72.13645203      12.32800000
Se      47.67600000      74.98394356      12.32800000
Se      49.32000000      77.83143509      12.32800000
Se      50.96400000      80.67892662      12.32800000
Se      52.60800000      83.52641814      12.32800000
Se      54.25200000      86.37390967      12.32800000
Se      55.89600000      89.22140120      12.32800000
Se      57.54000000      92.06889273      12.32800000
Se      59.18400000      94.91638425      12.32800000
Se      60.82800000      97.76387578      12.32800000
Se      62.47200000     100.61136731      12.32800000
Se      64.11600000     103.45885884      12.32800000
Se      65.76000000     106.30635037      12.32800000
Se      67.40400000     109.15384189      12.32800000
Se      69.04800000     112.00133342      12.32800000
Se      70.69200000     114.84882495      12.32800000
Se      72.33600000     117.69631648      12.32800000
Se      73.98000000     120.54380800      12.32800000
Se      75.62400000     123.39129953      12.32800000
Se      77.26800000     126.23879106      12.32800000
Se      78.91200000     129.08628259      12.32800000
Se       0.00000000      83.52641814      12.32800000
Se      13.15200000       9.49163843      12.32800000
Se      14.79600000      12.33912995      12.32800000
Se      16.44000000      15.18662148      12.32800000
Se      18.08400000      18.03411301      12.32800000
Se      19.72800000      20.88160454      12.32800000
Se      21.37200000      23.72909606      12.32800000
Se      23.01600000      26.57658759      12.32800000
Se      24.66000000      29.42407912      12.32800000
Se      26.30400000      32.27157065      12.32800000
Se      27.94800000      35.11906217      12.32800000
Se      29.59200000      37.96655370      12.32800000
Se      31.23600000      40.81404523      12.32800000
Se      32.88000000      43.66153676      12.32800000
Se      34.52400000      46.50902828      12.32800000
Se      36.16800000      49.35651981      12.32800000
Se      37.81200000      52.20401134      12.32800000
Se      39.45600000      55.05150287      12.32800000
Se      41.10000000      57.89899440      12.32800000
Se      42.74400000      60.74648592      12.32800000
Se      44.38800000      63.59397745      12.32800000
Se      46.03200000      66.44146898      12.32800000
Se      47.67600000      69.28896051      12.32800000
Se      49.32000000      72.13645203      12.32800000
Se      50.96400000      74.98394356      12.32800000
Se      52.60800000      77.83143509      12.32800000
Se      54.25200000      80.67892662      12.32800000
Se      55.89600000      83.52641814      12.32800000
Se      57.54000000      86.37390967      12.32800000
Se      59.18400000      89.22140120      12.32800000
Se      60.82800000      92.06889273      12.32800000
Se      62.47200000      94.91638425      12.32800000
Se      64.11600000      97.76387578      12.32800000
Se      65.76000000     100.61136731      12.32800000
Se      67.40400000     103.45885884      12.32800000
Se      69.04800000     106.30635037      12.32800000
Se      70.69200000     109.15384189      12.32800000
Se      72.33600000     112.00133342      12.32800000
Se      73.98000000     114.84882495      12.32800000
Se      75.62400000     117.69631648      12.32800000
Se      77.26800000     120.54380800      12.32800000
Se      78.91200000     123.39129953      12.32800000
Se       0.00000000      77.83143509      12.32800000
Se      18.08400000      12.33912995      12.32800000
Se      19.72800000      15.18662148      12.32800000
Se      21.37200000      18.03411301      12.32800000
Se      23.01600000      20.88160454      12.32800000
Se      24.66000000      23.72909606      12.32800000
Se      26.30400000      26.57658759      12.32800000
Se      27.94800000      29.42407912      12.32800000
Se      29.59200000      32.27157065      12.32800000
Se      31.23600000      35.11906217      12.32800000
Se      32.88000000      37.96655370      12.32800000
Se      34.52400000      40.81404523      12.32800000
Se      36.16800000      43.66153676      12.32800000
Se      37.81200000      46.50902828      12.32800000
Se      39.45600000      49.35651981      12.32800000
Se      41.10000000      52.20401134      12.32800000
Se      42.74400000      55.05150287      12.32800000
Se      44.38800000      57.89899440      12.32800000
Se      46.03200000      60.74648592      12.32800000
Se      47.67600000      63.59397745      12.32800000
Se      49.32000000      66.44146898      12.32800000
Se      50.96400000      69.28896051      12.32800000
Se      52.60800000      72.13645203      12.32800000
Se      54.25200000      74.98394356      12.32800000
Se      55.89600000      77.83143509      12.32800000
Se      57.54000000      80.67892662      12.32800000
Se      59.18400000      83.52641814      12.32800000
Se      60.82800000      86.37390967      12.32800000
Se      62.47200000      89.22140120      12.32800000
Se      64.11600000      92.06889273      12.32800000
Se      65.76000000      94.91638425      12.32800000
Se      67.40400000      97.76387578      12.32800000
Se      69.04800000     100.61136731      12.32800000
Se      70.69200000     103.45885884      12.32800000
Se      72.33600000     106.30635037      12.32800000
Se      73.98000000     109.15384189      12.32800000
Se      75.62400000     112.00133342      12.32800000
Se      77.26800000     114.84882495      12.32800000
Se      78.91200000     117.69631648      12.32800000
Se       0.00000000      72.13645203      12.32800000
Se      23.01600000      15.18662148      12.32800000
Se      24.66000000      18.03411301      12.32800000
Se      26.30400000      20.88160454      12.32800000
Se      27.94800000      23.72909606      12.32800000
Se      29.59200000      26.57658759      12.32800000
Se      31.23600000      29.42407912      12.32800000
Se      32.88000000      32.27157065      12.32800000
Se      34.52400000      35.11906217      12.32800000
Se      36.16800000      37.96655370      12.32800000
Se      37.81200000      40.81404523      12.32800000
Se      39.45600000      43.66153676      12.32800000
Se      41.10000000      46.50902828      12.32800000
Se      42.74400000      49.35651981      12.32800000
Se      44.38800000      52.20401134      12.32800000
Se      46.03200000      55.05150287      12.32800000
Se      47.67600000      57.89899440      12.32800000
Se      49.32000000      60.74648592      12.32800000
Se      50.96400000      63.59397745      12.32800000
Se      52.60800000      66.44146898      12.32800000
Se      54.25200000      69.28896051      12.32800000
Se      55.89600000      72.13645203      12.32800000
Se      57.54000000      74.98394356      12.32800000
Se      59.18400000      77.83143509      12.32800000
Se      60.82800000      80.67892662      12.32800000
Se      62.47200000      83.52641814      12.32800000
Se      64.11600000      86.37390967      12.32800000
Se      65.76000000      89.22140120      12.32800000
Se      67.40400000      92.06889273      12.32800000
Se      69.04800000      94.91638425      12.32800000
Se      70.69200000      97.76387578      12.32800000
Se      72.33600000     100.61136731      12.32800000
Se      73.98000000     103.45885884      12.32800000
Se      75.62400000     106.30635037      12.32800000
Se      77.26800000     109.15384189      12.32800000
Se      78.91200000     112.00133342      12.32800000
Se       0.00000000      66.44146898      12.32800000
Se      27.94800000      18.03411301      12.32800000
Se      29.59200000      20.88160454      12.32800000
Se      31.23600000      23.72909606      12.32800000
Se      32.88000000      26.57658759      12.32800000
Se      34.52400000      29.42407912      12.32800000
Se      36.16800000      32.27157065      12.32800000
Se      37.81200000      35.11906217      12.32800000
Se      39.45600000      37.96655370      12.32800000
Se      41.10000000      40.81404523      12.32800000
Se      42.74400000      43.66153676      12.32800000
Se      44.38800000      46.50902828      12.32800000
Se      46.03200000      49.35651981      12.32800000
Se      47.67600000      52.20401134      12.32800000
Se      49.32000000      55.05150287      12.32800000
Se      50.96400000      57.89899440      12.32800000
Se      52.60800000      60.74648592      12.32800000
Se      54.25200000      63.59397745      12.32800000
Se      55.89600000      66.44146898      12.32800000
Se      57.54000000      69.28896051      12.32800000
Se      59.18400000      72.13645203      12.32800000
Se      60.82800000      74.98394356      12.32800000
Se      62.47200000      77.83143509      12.32800000
Se      64.11600000      80.67892662      12.32800000
Se      65.76000000      83.52641814      12.32800000
Se      67.40400000      86.37390967      12.32800000
Se      69.04800000      89.22140120      12.32800000
Se      70.69200000      92.06889273      12.32800000
Se      72.33600000      94.91638425      12.32800000
Se      73.98000000      97.76387578      12.32800000
Se      75.62400000     100.61136731      12.32800000
Se      77.26800000     103.45885884      12.32800000
Se      78.91200000     106.30635037      12.32800000
Se      -0.00000000      60.74648592      12.32800000
Se      32.88000000      20.88160454      12.32800000
Se      34.52400000      23.72909606      12.32800000
Se      36.16800000      26.57658759      12.32800000
Se      37.81200000      29.42407912      12.32800000
Se      39.45600000      32.27157065      12.32800000
Se      41.10000000      35.11906217      12.32800000
Se      42.74400000      37.96655370      12.32800000
Se      44.38800000      40.81404523      12.32800000
Se      46.03200000      43.66153676      12.32800000
Se      47.67600000      46.50902828      12.32800000
Se      49.32000000      49.35651981      12.32800000
Se      50.96400000      52.20401134      12.32800000
Se      52.60800000      55.05150287      12.32800000
Se      54.25200000      57.89899440      12.32800000
Se      55.89600000      60.74648592      12.32800000
Se      57.54000000      63.59397745      12.32800000
Se      59.18400000      66.44146898      12.32800000
Se      60.82800000      69.28896051      12.32800000
Se      62.47200000      72.13645203      12.32800000
Se      64.11600000      74.98394356      12.32800000
Se      65.76000000      77.83143509      12.32800000
Se      67.40400000      80.67892662      12.32800000
Se      69.04800000      83.52641814      12.32800000
Se      70.69200000      86.37390967      12.32800000
Se      72.33600000      89.22140120      12.32800000
Se      73.98000000      92.06889273      12.32800000
Se      75.62400000      94.91638425      12.32800000
Se      77.26800000      97.76387578      12.32800000
Se      78.91200000     100.61136731      12.32800000
Se       0.00000000      55.05150287      12.32800000
Se      37.81200000      23.72909606      12.32800000
Se      39.45600000      26.57658759      12.32800000
Se      41.10000000      29.42407912      12.32800000
Se      42.74400000      32.27157065      12.32800000
Se      44.38800000      35.11906217      12.32800000
Se      46.03200000      37.96655370      12.32800000
Se      47.67600000      40.81404523      12.32800000
Se      49.32000000      43.66153676      12.32800000
Se      50.96400000      46.50902828      12.32800000
Se      52.60800000      49.35651981      12.32800000
Se      54.25200000      52.20401134      12.32800000
Se      55.89600000      55.05150287      12.32800000
Se      57.54000000      57.89899440      12.32800000
Se      59.18400000      60.74648592      12.32800000
Se      60.82800000      63.59397745      12.32800000
Se      62.47200000      66.44146898      12.32800000
Se      64.11600000      69.28896051      12.32800000
Se      65.76000000      72.13645203      12.32800000
Se      67.40400000      74.98394356      12.32800000
Se      69.04800000      77.83143509      12.32800000
Se      70.69200000      80.67892662      12.32800000
Se      72.33600000      83.52641814      12.32800000
Se      73.98000000      86.37390967      12.32800000
Se      75.62400000      89.22140120      12.32800000
Se      77.26800000      92.06889273      12.32800000
Se      78.91200000      94.91638425      12.32800000
Se       0.00000000      49.35651981      12.32800000
Se      42.74400000      26.57658759      12.32800000
Se      44.38800000      29.42407912      12.32800000
Se      46.03200000      32.27157065      12.32800000
Se      47.67600000      35.11906217      12.32800000
Se      49.32000000      37.96655370      12.32800000
Se      50.96400000      40.81404523      12.32800000
Se      52.60800000      43.66153676      12.32800000
Se      54.25200000      46.50902828      12.32800000
Se      55.89600000      49.35651981      12.32800000
Se      57.54000000      52.20401134      12.32800000
Se      59.18400000      55.05150287      12.32800000
Se      60.82800000      57.89899440      12.32800000
Se      62.47200000      60.74648592      12.32800000
Se      64.11600000      63.59397745      12.32800000
Se      65.76000000      66.44146898      12.32800000
Se      67.40400000      69.28896051      12.32800000
Se      69.04800000      72.13645203      12.32800000
Se      70.69200000      74.98394356      12.32800000
Se      72.33600000      77.83143509      12.32800000
Se      73.98000000      80.67892662      12.32800000
Se      75.62400000      83.52641814      12.32800000
Se      77.26800000      86.37390967      12.32800000
Se      78.91200000      89.22140120      12.32800000
Se       0.00000000      43.66153676      12.32800000
Se      47.67600000      29.42407912      12.32800000
Se      49.32000000      32.27157065      12.32800000
Se      50.96400000      35.11906217      12.32800000
Se      52.60800000      37.96655370      12.32800000
Se      54.25200000      40.81404523      12.32800000
Se      55.89600000      43.66153676      12.32800000
Se      57.54000000      46.50902828      12.32800000
Se      59.18400000      49.35651981      12.32800000
Se      60.82800000      52.20401134      12.32800000
Se      62.47200000      55.05150287      12.32800000
Se      64.11600000      57.89899440      12.32800000
Se      65.76000000      60.74648592      12.32800000
Se      67.40400000      63.59397745      12.32800000
Se      69.04800000      66.44146898      12.32800000
Se      70.69200000      69.28896051      12.32800000
Se      72.33600000      72.13645203      12.32800000
Se      73.98000000      74.98394356      12.32800000
Se      75.62400000      77.83143509      12.32800000
Se      77.26800000      80.67892662      12.32800000
Se      78.91200000      83.52641814      12.32800000
Se       0.00000000      37.96655370      12.32800000
Se      52.60800000      32.27157065      12.32800000
Se      54.25200000      35.11906217      12.32800000
Se      55.89600000      37.96655370      12.32800000
Se      57.54000000      40.81404523      12.32800000
Se      59.18400000      43.66153676      12.32800000
Se      60.82800000      46.50902828      12.32800000
Se      62.47200000      49.35651981      12.32800000
Se      64.11600000      52.20401134      12.32800000
Se      65.76000000      55.05150287      12.32800000
Se      67.40400000      57.89899440      12.32800000
Se      69.04800000      60.74648592      12.32800000
Se      70.69200000      63.59397745      12.32800000
Se      72.33600000      66.44146898      12.32800000
Se      73.98000000      69.28896051      12.32800000
Se      75.62400000      72.13645203      12.32800000
Se      77.26800000      74.98394356      12.32800000
Se      78.91200000      77.83143509      12.32800000
Se       0.00000000      32.27157065      12.32800000
Se      57.54000000      35.11906217      12.32800000
Se      59.18400000      37.96655370      12.32800000
Se      60.82800000      40.81404523      12.32800000
Se      62.47200000      43.66153676      12.32800000
Se      64.11600000      46.50902828      12.32800000
Se      65.76000000      49.35651981      12.32800000
Se      67.40400000      52.20401134      12.32800000
Se      69.04800000      55.05150287      12.32800000
Se      70.69200000      57.89899440      12.32800000
Se      72.33600000      60.74648592      12.32800000
Se      73.98000000      63.59397745      12.32800000
Se      75.62400000      66.44146898      12.32800000
Se      77.26800000      69.28896051      12.32800000
Se      78.91200000      72.13645203      12.32800000
Se       0.00000000      26.57658759      12.32800000
Se      62.47200000      37.96655370      12.32800000
Se      64.11600000      40.81404523      12.32800000
Se      65.76000000      43.66153676      12.32800000
Se      67.40400000      46.50902828      12.32800000
Se      69.04800000      49.35651981      12.32800000
Se      70.69200000      52.20401134      12.32800000
Se      72.33600000      55.05150287      12.32800000
Se      73.98000000      57.89899440      12.32800000
Se      75.62400000      60.74648592      12.32800000
Se      77.26800000      63.59397745      12.32800000
Se      78.91200000      66.44146898      12.32800000
Se       0.00000000      20.88160454      12.32800000
Se      67.40400000      40.81404523      12.32800000
Se      69.04800000      43.66153676      12.32800000
Se      70.69200000      46.50902828      12.32800000
Se      72.33600000      49.35651981      12.32800000
Se      73.98000000      52.20401134      12.32800000
Se      75.62400000      55.05150287      12.32800000
Se      77.26800000      57.89899440      12.32800000
Se      78.91200000      60.74648592      12.32800000
Se       0.00000000      15.18662148      12.32800000
Se      72.33600000      43.66153676      12.32800000
Se      73.98000000      46.50902828      12.32800000
Se      75.62400000      49.35651981      12.32800000
Se      77.26800000      52.20401134      12.32800000
Se      78.91200000      55.05150287      12.32800000
Se       0.00000000       9.49163843      12.32800000
Se      77.26800000      46.50902828      12.32800000
Se      78.91200000      49.35651981      12.32800000
Se       0.00000000       3.79665537      12.32800000
Se       1.64400000      92.06889273       9.00000000
Se       3.28800000      94.91638425       9.00000000
Se       4.93200000      97.76387578       9.00000000
Se       1.64400000      86.37390967       9.00000000
Se       3.28800000      89.22140120       9.00000000
Se       4.93200000      92.06889273       9.00000000
Se       6.57600000      94.91638425       9.00000000
Se       8.22000000      97.76387578       9.00000000
Se       9.86400000     100.61136731       9.00000000
Se       1.64400000      80.67892662       9.00000000
Se       3.28800000      83.52641814       9.00000000
Se       4.93200000      86.37390967       9.00000000
Se       6.57600000      89.22140120       9.00000000
Se       8.22000000      92.06889273       9.00000000
Se       9.86400000      94.91638425       9.00000000
Se      11.50800000      97.76387578       9.00000000
Se      13.15200000     100.61136731       9.00000000
Se      14.79600000     103.45885884       9.00000000
Se       1.64400000      74.98394356       9.00000000
Se       3.28800000      77.83143509       9.00000000
Se       4.93200000      80.67892662       9.00000000
Se       6.57600000      83.52641814       9.00000000
Se       8.22000000      86.37390967       9.00000000
Se       9.86400000      89.22140120       9.00000000
Se      11.50800000      92.06889273       9.00000000
Se      13.15200000      94.91638425       9.00000000
Se      14.79600000      97.76387578       9.00000000
Se      16.44000000     100.61136731       9.00000000
Se      18.08400000     103.45885884       9.00000000
Se      19.72800000     106.30635037       9.00000000
Se       1.64400000      69.28896051       9.00000000
Se       3.28800000      72.13645203       9.00000000
Se       4.93200000      74.98394356       9.00000000
Se       6.57600000      77.83143509       9.00000000
Se       8.22000000      80.67892662       9.00000000
Se       9.86400000      83.52641814       9.00000000
Se      11.50800000      86.37390967       9.00000000
Se      13.15200000      89.22140120       9.00000000
Se      14.79600000      92.06889273       9.00000000
Se      16.44000000      94.91638425       9.00000000
Se      18.08400000      97.76387578       9.00000000
Se      19.72800000     100.61136731       9.00000000
Se      21.37200000     103.45885884       9.00000000
Se      23.01600000     106.30635037       9.00000000
Se      24.66000000     109.15384189       9.00000000
Se       1.64400000      63.59397745       9.00000000
Se       3.28800000      66.44146898       9.00000000
Se       4.93200000      69.28896051       9.00000000
Se       6.57600000      72.13645203       9.00000000
Se       8.22000000      74.98394356       9.00000000
Se       9.86400000      77.83143509       9.00000000
Se      11.50800000      80.67892662       9.00000000
Se      13.15200000      83.52641814       9.00000000
Se      14.79600000      86.37390967       9.00000000
Se      16.44000000      89.22140120       9.00000000
Se      18.08400000      92.06889273       9.00000000
Se      19.72800000      94.91638425       9.00000000
Se      21.37200000      97.76387578       9.00000000
Se      23.01600000     100.61136731       9.00000000
Se      24.66000000     103.45885884       9.00000000
Se      26.30400000     106.30635037       9.00000000
Se      27.94800000     109.15384189       9.00000000
Se      29.59200000     112.00133342       9.00000000
Se       1.64400000      57.89899440       9.00000000
Se       3.28800000      60.74648592       9.00000000
Se       4.93200000      63.59397745       9.00000000
Se       6.57600000      66.44146898       9.00000000
Se       8.22000000      69.28896051       9.00000000
Se       9.86400000      72.13645203       9.00000000
Se      11.50800000      74.98394356       9.00000000
Se      13.15200000      77.83143509       9.00000000
Se      14.79600000      80.67892662       9.00000000
Se      16.44000000      83.52641814       9.00000000
Se      18.08400000      86.37390967       9.00000000
Se      19.72800000      89.22140120       9.00000000
Se      21.37200000      92.06889273       9.00000000
Se      23.01600000      94.91638425       9.00000000
Se      24.66000000      97.76387578       9.00000000
Se      26.30400000     100.61136731       9.00000000
Se      27.94800000     103.45885884       9.00000000
Se      29.59200000     106.30635037       9.00000000
Se      31.23600000     109.15384189       9.00000000
Se      32.88000000     112.00133342       9.00000000
Se      34.52400000     114.84882495       9.00000000
Se       1.64400000      52.20401134       9.00000000
Se       3.28800000      55.05150287       9.00000000
Se       4.93200000      57.89899440       9.00000000
Se       6.57600000      60.74648592       9.00000000
Se       8.22000000      63.59397745       9.00000000
Se       9.86400000      66.44146898       9.00000000
Se      11.50800000      69.28896051       9.00000000
Se      13.15200000      72.13645203       9.00000000
Se      14.79600000      74.98394356       9.00000000
Se      16.44000000      77.83143509       9.00000000
Se      18.08400000      80.67892662       9.00000000
Se      19.72800000      83.52641814       9.00000000
Se      21.37200000      86.37390967       9.00000000
Se      23.01600000      89.22140120       9.00000000
Se      24.66000000      92.06889273       9.00000000
Se      26.30400000      94.91638425       9.00000000
Se      27.94800000      97.76387578       9.00000000
Se      29.59200000     100.61136731       9.00000000
Se      31.23600000     103.45885884       9.00000000
Se      32.88000000     106.30635037       9.00000000
Se      34.52400000     109.15384189       9.00000000
Se      36.16800000     112.00133342       9.00000000
Se      37.81200000     114.84882495       9.00000000
Se      39.45600000     117.69631648       9.00000000
Se       1.64400000      46.50902828       9.00000000
Se       3.28800000      49.35651981       9.00000000
Se       4.93200000      52.20401134       9.00000000
Se       6.57600000      55.05150287       9.00000000
Se       8.22000000      57.89899440       9.00000000
Se       9.86400000      60.74648592       9.00000000
Se      11.50800000      63.59397745       9.00000000
Se      13.15200000      66.44146898       9.00000000
Se      14.79600000      69.28896051       9.00000000
Se      16.44000000      72.13645203       9.00000000
Se      18.08400000      74.98394356       9.00000000
Se      19.72800000      77.83143509       9.00000000
Se      21.37200000      80.67892662       9.00000000
Se      23.01600000      83.52641814       9.00000000
Se      24.66000000      86.37390967       9.00000000
Se      26.30400000      89.22140120       9.00000000
Se      27.94800000      92.06889273       9.00000000
Se      29.59200000      94.91638425       9.00000000
Se      31.23600000      97.76387578       9.00000000
Se      32.88000000     100.61136731       9.00000000
Se      34.52400000     103.45885884       9.00000000
Se      36.16800000     106.30635037       9.00000000
Se      37.81200000     109.15384189       9.00000000
Se      39.45600000     112.00133342       9.00000000
Se      41.10000000     114.84882495       9.00000000
Se      42.74400000     117.69631648       9.00000000
Se      44.38800000     120.54380800       9.00000000
Se       1.64400000      40.81404523       9.00000000
Se       3.28800000      43.66153676       9.00000000
Se       4.93200000      46.50902828       9.00000000
Se       6.57600000      49.35651981       9.00000000
Se       8.22000000      52.20401134       9.00000000
Se       9.86400000      55.05150287       9.00000000
Se      11.50800000      57.89899440       9.00000000
Se      13.15200000      60.74648592       9.00000000
Se      14.79600000      63.59397745       9.00000000
Se      16.44000000      66.44146898       9.00000000
Se      18.08400000      69.28896051       9.00000000
Se      19.72800000      72.13645203       9.00000000
Se      21.37200000      74.98394356       9.00000000
Se      23.01600000      77.83143509       9.00000000
Se      24.66000000      80.67892662       9.00000000
Se      26.30400000      83.52641814       9.00000000
Se      27.94800000      86.37390967       9.00000000
Se      29.59200000      89.22140120       9.00000000
Se      31.23600000      92.06889273       9.00000000
Se      32.88000000      94.91638425       9.00000000
Se      34.52400000      97.76387578       9.00000000
Se      36.16800000     100.61136731       9.00000000
Se      37.81200000     103.45885884       9.00000000
Se      39.45600000     106.30635037       9.00000000
Se      41.10000000     109.15384189       9.00000000
Se      42.74400000     112.00133342       9.00000000
Se      44.38800000     114.84882495       9.00000000
Se      46.03200000     117.69631648       9.00000000
Se      47.67600000     120.54380800       9.00000000
Se      49.32000000     123.39129953       9.00000000
Se       1.64400000      35.11906217       9.00000000
Se       3.28800000      37.96655370       9.00000000
Se       4.93200000      40.81404523       9.00000000
Se       6.57600000      43.66153676       9.00000000
Se       8.22000000      46.50902828       9.00000000
Se       9.86400000      49.35651981       9.00000000
Se      11.50800000      52.20401134       9.00000000
Se      13.15200000      55.05150287       9.00000000
Se      14.79600000      57.89899440       9.00000000
Se      16.44000000      60.74648592       9.00000000
Se      18.08400000      63.59397745       9.00000000
Se      19.72800000      66.44146898       9.00000000
Se      21.37200000      69.28896051       9.00000000
Se      23.01600000      72.13645203       9.00000000
Se      24.66000000      74.98394356       9.00000000
Se      26.30400000      77.83143509       9.00000000
Se      27.94800000      80.67892662       9.00000000
Se      29.59200000      83.52641814       9.00000000
Se      31.23600000      86.37390967       9.00000000
Se      32.88000000      89.22140120       9.00000000
Se      34.52400000      92.06889273       9.00000000
Se      36.16800000      94.91638425       9.00000000
Se      37.81200000      97.76387578       9.00000000
Se      39.45600000     100.61136731       9.00000000
Se      41.10000000     103.45885884       9.00000000
Se      42.74400000     106.30635037       9.00000000
Se      44.38800000     109.15384189       9.00000000
Se      46.03200000     112.00133342       9.00000000
Se      47.67600000     114.84882495       9.00000000
Se      49.32000000     117.69631648       9.00000000
Se      50.96400000     120.54380800       9.00000000
Se      52.60800000     123.39129953       9.00000000
Se      54.25200000     126.23879106       9.00000000
Se       1.64400000      29.42407912       9.00000000
Se       3.28800000      32.27157065       9.00000000
Se       4.93200000      35.11906217       9.00000000
Se       6.57600000      37.96655370       9.00000000
Se       8.22000000      40.81404523       9.00000000
Se       9.86400000      43.66153676       9.00000000
Se      11.50800000      46.50902828       9.00000000
Se      13.15200000      49.35651981       9.00000000
Se      14.79600000      52.20401134       9.00000000
Se      16.44000000      55.05150287       9.00000000
Se      18.08400000      57.89899440       9.00000000
Se      19.72800000      60.74648592       9.00000000
Se      21.37200000      63.59397745       9.00000000
Se      23.01600000      66.44146898       9.00000000
Se      24.66000000      69.28896051       9.00000000
Se      26.30400000      72.13645203       9.00000000
Se      27.94800000      74.98394356       9.00000000
Se      29.59200000      77.83143509       9.00000000
Se      31.23600000      80.67892662       9.00000000
Se      32.88000000      83.52641814       9.00000000
Se      34.52400000      86.37390967       9.00000000
Se      36.16800000      89.22140120       9.00000000
Se      37.81200000      92.06889273       9.00000000
Se      39.45600000      94.91638425       9.00000000
Se      41.10000000      97.76387578       9.00000000
Se      42.74400000     100.61136731       9.00000000
Se      44.38800000     103.45885884       9.00000000
Se      46.03200000     106.30635037       9.00000000
Se      47.67600000     109.15384189       9.00000000
Se      49.32000000     112.00133342       9.00000000
Se      50.96400000     114.84882495       9.00000000
Se      52.60800000     117.69631648       9.00000000
Se      54.25200000     120.54380800       9.00000000
Se      55.89600000     123.39129953       9.00000000
Se      57.54000000     126.23879106       9.00000000
Se      59.18400000     129.08628259       9.00000000
Se       1.64400000      23.72909606       9.00000000
Se       3.28800000      26.57658759       9.00000000
Se       4.93200000      29.42407912       9.00000000
Se       6.57600000      32.27157065       9.00000000
Se       8.22000000      35.11906217       9.00000000
Se       9.86400000      37.96655370       9.00000000
Se      11.50800000      40.81404523       9.00000000
Se      13.15200000      43.66153676       9.00000000
Se      14.79600000      46.50902828       9.00000000
Se      16.44000000      49.35651981       9.00000000
Se      18.08400000      52.20401134       9.00000000
Se      19.72800000      55.05150287       9.00000000
Se      21.37200000      57.89899440       9.00000000
Se      23.01600000      60.74648592       9.00000000
Se      24.66000000      63.59397745       9.00000000
Se      26.30400000      66.44146898       9.00000000
Se      27.94800000      69.28896051       9.00000000
Se      29.59200000      72.13645203       9.00000000
Se      31.23600000      74.98394356       9.00000000
Se      32.88000000      77.83143509       9.00000000
Se      34.52400000      80.67892662       9.00000000
Se      36.16800000      83.52641814       9.00000000
Se      37.81200000      86.37390967       9.00000000
Se      39.45600000      89.22140120       9.00000000
Se      41.10000000      92.06889273       9.00000000
Se      42.74400000      94.91638425       9.00000000
Se      44.38800000      97.76387578       9.00000000
Se      46.03200000     100.61136731       9.00000000
Se      47.67600000     103.45885884       9.00000000
Se      49.32000000     106.30635037       9.00000000
Se      50.96400000     109.15384189       9.00000000
Se      52.60800000     112.00133342       9.00000000
Se      54.25200000     114.84882495       9.00000000
Se      55.89600000     117.69631648       9.00000000
Se      57.54000000     120.54380800       9.00000000
Se      59.18400000     123.39129953       9.00000000
Se      60.82800000     126.23879106       9.00000000
Se      62.47200000     129.08628259       9.00000000
Se      64.11600000     131.93377411       9.00000000
Se       1.64400000      18.03411301       9.00000000
Se       3.28800000      20.88160454       9.00000000
Se       4.93200000      23.72909606       9.00000000
Se       6.57600000      26.57658759       9.00000000
Se       8.22000000      29.42407912       9.00000000
Se       9.86400000      32.27157065       9.00000000
Se      11.50800000      35.11906217       9.00000000
Se      13.15200000      37.96655370       9.00000000
Se      14.79600000      40.81404523       9.00000000
Se      16.44000000      43.66153676       9.00000000
Se      18.08400000      46.50902828       9.00000000
Se      19.72800000      49.35651981       9.00000000
Se      21.37200000      52.20401134       9.00000000
Se      23.01600000      55.05150287       9.00000000
Se      24.66000000      57.89899440       9.00000000
Se      26.30400000      60.74648592       9.00000000
Se      27.94800000      63.59397745       9.00000000
Se      29.59200000      66.44146898       9.00000000
Se      31.23600000      69.28896051       9.00000000
Se      32.88000000      72.13645203       9.00000000
Se      34.52400000      74.98394356       9.00000000
Se      36.16800000      77.83143509       9.00000000
Se      37.81200000      80.67892662       9.00000000
Se      39.45600000      83.52641814       9.00000000
Se      41.10000000      86.37390967       9.00000000
Se      42.74400000      89.22140120       9.00000000
Se      44.38800000      92.06889273       9.00000000
Se      46.03200000      94.91638425       9.00000000
Se      47.67600000      97.76387578       9.00000000
Se      49.32000000     100.61136731       9.00000000
Se      50.96400000     103.45885884       9.00000000
Se      52.60800000     106.30635037       9.00000000
Se      54.25200000     109.15384189       9.00000000
Se      55.89600000     112.00133342       9.00000000
Se      57.54000000     114.84882495       9.00000000
Se      59.18400000     117.69631648       9.00000000
Se      60.82800000     120.54380800       9.00000000
Se      62.47200000     123.39129953       9.00000000
Se      64.11600000     126.23879106       9.00000000
Se      65.76000000     129.08628259       9.00000000
Se      67.40400000     131.93377411       9.00000000
Se      69.04800000     134.78126564       9.00000000
Se       1.64400000      12.33912995       9.00000000
Se       3.28800000      15.18662148       9.00000000
Se       4.93200000      18.03411301       9.00000000
Se       6.57600000      20.88160454       9.00000000
Se       8.22000000      23.72909606       9.00000000
Se       9.86400000      26.57658759       9.00000000
Se      11.50800000      29.42407912       9.00000000
Se      13.15200000      32.27157065       9.00000000
Se      14.79600000      35.11906217       9.00000000
Se      16.44000000      37.96655370       9.00000000
Se      18.08400000      40.81404523       9.00000000
Se      19.72800000      43.66153676       9.00000000
Se      21.37200000      46.50902828       9.00000000
Se      23.01600000      49.35651981       9.00000000
Se      24.66000000      52.20401134       9.00000000
Se      26.30400000      55.05150287       9.00000000
Se      27.94800000      57.89899440       9.00000000
Se      29.59200000      60.74648592       9.00000000
Se      31.23600000      63.59397745       9.00000000
Se      32.88000000      66.44146898       9.00000000
Se      34.52400000      69.28896051       9.00000000
Se      36.16800000      72.13645203       9.00000000
Se      37.81200000      74.98394356       9.00000000
Se      39.45600000      77.83143509       9.00000000
Se      41.10000000      80.67892662       9.00000000
Se      42.74400000      83.52641814       9.00000000
Se      44.38800000      86.37390967       9.00000000
Se      46.03200000      89.22140120       9.00000000
Se      47.67600000      92.06889273       9.00000000
Se      49.32000000      94.91638425       9.00000000
Se      50.96400000      97.76387578       9.00000000
Se      52.60800000     100.61136731       9.00000000
Se      54.25200000     103.45885884       9.00000000
Se      55.89600000     106.30635037       9.00000000
Se      57.54000000     109.15384189       9.00000000
Se      59.18400000     112.00133342       9.00000000
Se      60.82800000     114.84882495       9.00000000
Se      62.47200000     117.69631648       9.00000000
Se      64.11600000     120.54380800       9.00000000
Se      65.76000000     123.39129953       9.00000000
Se      67.40400000     126.23879106       9.00000000
Se      69.04800000     129.08628259       9.00000000
Se      70.69200000     131.93377411       9.00000000
Se      72.33600000     134.78126564       9.00000000
Se      73.98000000     137.62875717       9.00000000
Se       1.64400000       6.64414690       9.00000000
Se       3.28800000       9.49163843       9.00000000
Se       4.93200000      12.33912995       9.00000000
Se       6.57600000      15.18662148       9.00000000
Se       8.22000000      18.03411301       9.00000000
Se       9.86400000      20.88160454       9.00000000
Se      11.50800000      23.72909606       9.00000000
Se      13.15200000      26.57658759       9.00000000
Se      14.79600000      29.42407912       9.00000000
Se      16.44000000      32.27157065       9.00000000
Se      18.08400000      35.11906217       9.00000000
Se      19.72800000      37.96655370       9.00000000
Se      21.37200000      40.81404523       9.00000000
Se      23.01600000      43.66153676       9.00000000
Se      24.66000000      46.50902828       9.00000000
Se      26.30400000      49.35651981       9.00000000
Se      27.94800000      52.20401134       9.00000000
Se      29.59200000      55.05150287       9.00000000
Se      31.23600000      57.89899440       9.00000000
Se      32.88000000      60.74648592       9.00000000
Se      34.52400000      63.59397745       9.00000000
Se      36.16800000      66.44146898       9.00000000
Se      37.81200000      69.28896051       9.00000000
Se      39.45600000      72.13645203       9.00000000
Se      41.10000000      74.98394356       9.00000000
Se      42.74400000      77.83143509       9.00000000
Se      44.38800000      80.67892662       9.00000000
Se      46.03200000      83.52641814       9.00000000
Se      47.67600000      86.37390967       9.00000000
Se      49.32000000      89.22140120       9.00000000
Se      50.96400000      92.06889273       9.00000000
Se      52.60800000      94.91638425       9.00000000
Se      54.25200000      97.76387578       9.00000000
Se      55.89600000     100.61136731       9.00000000
Se      57.54000000     103.45885884       9.00000000
Se      59.18400000     106.30635037       9.00000000
Se      60.82800000     109.15384189       9.00000000
Se      62.47200000     112.00133342       9.00000000
Se      64.11600000     114.84882495       9.00000000
Se      65.76000000     117.69631648       9.00000000
Se      67.40400000     120.54380800       9.00000000
Se      69.04800000     123.39129953       9.00000000
Se      70.69200000     126.23879106       9.00000000
Se      72.33600000     129.08628259       9.00000000
Se      73.98000000     131.93377411       9.00000000
Se      75.62400000     134.78126564       9.00000000
Se      77.26800000     137.62875717       9.00000000
Se      78.91200000     140.47624870       9.00000000
Se       0.00000000      94.91638425       9.00000000
Se       3.28800000       3.79665537       9.00000000
Se       4.93200000       6.64414690       9.00000000
Se       6.57600000       9.49163843       9.00000000
Se       8.22000000      12.33912995       9.00000000
Se       9.86400000      15.18662148       9.00000000
Se      11.50800000      18.03411301       9.00000000
Se      13.15200000      20.88160454       9.00000000
Se      14.79600000      23.72909606       9.00000000
Se      16.44000000      26.57658759       9.00000000
Se      18.08400000      29.42407912       9.00000000
Se      19.72800000      32.27157065       9.00000000
Se      21.37200000      35.11906217       9.00000000
Se      23.01600000      37.96655370       9.00000000
Se      24.66000000      40.81404523       9.00000000
Se      26.30400000      43.66153676       9.00000000
Se      27.94800000      46.50902828       9.00000000
Se      29.59200000      49.35651981       9.00000000
Se      31.23600000      52.20401134       9.00000000
Se      32.88000000      55.05150287       9.00000000
Se      34.52400000      57.89899440       9.00000000
Se      36.16800000      60.74648592       9.00000000
Se      37.81200000      63.59397745       9.00000000
Se      39.45600000      66.44146898       9.00000000
Se      41.10000000      69.28896051       9.00000000
Se      42.74400000      72.13645203       9.00000000
Se      44.38800000      74.98394356       9.00000000
Se      46.03200000      77.83143509       9.00000000
Se      47.67600000      80.67892662       9.00000000
Se      49.32000000      83.52641814       9.00000000
Se      50.96400000      86.37390967       9.00000000
Se      52.60800000      89.22140120       9.00000000
Se      54.25200000      92.06889273       9.00000000
Se      55.89600000      94.91638425       9.00000000
Se      57.54000000      97.76387578       9.00000000
Se      59.18400000     100.61136731       9.00000000
Se      60.82800000     103.45885884       9.00000000
Se      62.47200000     106.30635037       9.00000000
Se      64.11600000     109.15384189       9.00000000
Se      65.76000000     112.00133342       9.00000000
Se      67.40400000     114.84882495       9.00000000
Se      69.04800000     117.69631648       9.00000000
Se      70.69200000     120.54380800       9.00000000
Se      72.33600000     123.39129953       9.00000000
Se      73.98000000     126.23879106       9.00000000
Se      75.62400000     129.08628259       9.00000000
Se      77.26800000     131.93377411       9.00000000
Se      78.91200000     134.78126564       9.00000000
Se       0.00000000      89.22140120       9.00000000
Se       8.22000000       6.64414690       9.00000000
Se       9.86400000       9.49163843       9.00000000
Se      11.50800000      12.33912995       9.00000000
Se      13.15200000      15.18662148       9.00000000
Se      14.79600000      18.03411301       9.00000000
Se      16.44000000      20.88160454       9.00000000
Se      18.08400000      23.72909606       9.00000000
Se      19.72800000      26.57658759       9.00000000
Se      21.37200000      29.42407912       9.00000000
Se      23.01600000      32.27157065       9.00000000
Se      24.66000000      35.11906217       9.00000000
Se      26.30400000      37.96655370       9.00000000
Se      27.94800000      40.81404523       9.00000000
Se      29.59200000      43.66153676       9.00000000
Se      31.23600000      46.50902828       9.00000000
Se      32.88000000      49.35651981       9.00000000
Se      34.52400000      52.20401134       9.00000000
Se      36.16800000      55.05150287       9.00000000
Se      37.81200000      57.89899440       9.00000000
Se      39.45600000      60.74648592       9.00000000
Se      41.10000000      63.59397745       9.00000000
Se      42.74400000      66.44146898       9.00000000
Se      44.38800000      69.28896051       9.00000000
Se      46.03200000      72.13645203       9.00000000
Se      47.67600000      74.98394356       9.00000000
Se      49.32000000      77.83143509       9.00000000
Se      50.96400000      80.67892662       9.00000000
Se      52.60800000      83.52641814       9.00000000
Se      54.25200000      86.37390967       9.00000000
Se      55.89600000      89.22140120       9.00000000
Se      57.54000000      92.06889273       9.00000000
Se      59.18400000      94.91638425       9.00000000
Se      60.82800000      97.76387578       9.00000000
Se      62.47200000     100.61136731       9.00000000
Se      64.11600000     103.45885884       9.00000000
Se      65.76000000     106.30635037       9.00000000
Se      67.40400000     109.15384189       9.00000000
Se      69.04800000     112.00133342       9.00000000
Se      70.69200000     114.84882495       9.00000000
Se      72.33600000     117.69631648       9.00000000
Se      73.98000000     120.54380800       9.00000000
Se      75.62400000     123.39129953       9.00000000
Se      77.26800000     126.23879106       9.00000000
Se      78.91200000     129.08628259       9.00000000
Se       0.00000000      83.52641814       9.00000000
Se      13.15200000       9.49163843       9.00000000
Se      14.79600000      12.33912995       9.00000000
Se      16.44000000      15.18662148       9.00000000
Se      18.08400000      18.03411301       9.00000000
Se      19.72800000      20.88160454       9.00000000
Se      21.37200000      23.72909606       9.00000000
Se      23.01600000      26.57658759       9.00000000
Se      24.66000000      29.42407912       9.00000000
Se      26.30400000      32.27157065       9.00000000
Se      27.94800000      35.11906217       9.00000000
Se      29.59200000      37.96655370       9.00000000
Se      31.23600000      40.81404523       9.00000000
Se      32.88000000      43.66153676       9.00000000
Se      34.52400000      46.50902828       9.00000000
Se      36.16800000      49.35651981       9.00000000
Se      37.81200000      52.20401134       9.00000000
Se      39.45600000      55.05150287       9.00000000
Se      41.10000000      57.89899440       9.00000000
Se      42.74400000      60.74648592       9.00000000
Se      44.38800000      63.59397745       9.00000000
Se      46.03200000      66.44146898       9.00000000
Se      47.67600000      69.28896051       9.00000000
Se      49.32000000      72.13645203       9.00000000
Se      50.96400000      74.98394356       9.00000000
Se      52.60800000      77.83143509       9.00000000
Se      54.25200000      80.67892662       9.00000000
Se      55.89600000      83.52641814       9.00000000
Se      57.54000000      86.37390967       9.00000000
Se      59.18400000      89.22140120       9.00000000
Se      60.82800000      92.06889273       9.00000000
Se      62.47200000      94.91638425       9.00000000
Se      64.11600000      97.76387578       9.00000000
Se      65.76000000     100.61136731       9.00000000
Se      67.40400000     103.45885884       9.00000000
Se      69.04800000     106.30635037       9.00000000
Se      70.69200000     109.15384189       9.00000000
Se      72.33600000     112.00133342       9.00000000
Se      73.98000000     114.84882495       9.00000000
Se      75.62400000     117.69631648       9.00000000
Se      77.26800000     120.54380800       9.00000000
Se      78.91200000     123.39129953       9.00000000
Se       0.00000000      77.83143509       9.00000000
Se      18.08400000      12.33912995       9.00000000
Se      19.72800000      15.18662148       9.00000000
Se      21.37200000      18.03411301       9.00000000
Se      23.01600000      20.88160454       9.00000000
Se      24.66000000      23.72909606       9.00000000
Se      26.30400000      26.57658759       9.00000000
Se      27.94800000      29.42407912       9.00000000
Se      29.59200000      32.27157065       9.00000000
Se      31.23600000      35.11906217       9.00000000
Se      32.88000000      37.96655370       9.00000000
Se      34.52400000      40.81404523       9.00000000
Se      36.16800000      43.66153676       9.00000000
Se      37.81200000      46.50902828       9.00000000
Se      39.45600000      49.35651981       9.00000000
Se      41.10000000      52.20401134       9.00000000
Se      42.74400000      55.05150287       9.00000000
Se      44.38800000      57.89899440       9.00000000
Se      46.03200000      60.74648592       9.00000000
Se      47.67600000      63.59397745       9.00000000
Se      49.32000000      66.44146898       9.00000000
Se      50.96400000      69.28896051       9.00000000
Se      52.60800000      72.13645203       9.00000000
Se      54.25200000      74.98394356       9.00000000
Se      55.89600000      77.83143509       9.00000000
Se      57.54000000      80.67892662       9.00000000
Se      59.18400000      83.52641814       9.00000000
Se      60.82800000      86.37390967       9.00000000
Se      62.47200000      89.22140120       9.00000000
Se      64.11600000      92.06889273       9.00000000
Se      65.76000000      94.91638425       9.00000000
Se      67.40400000      97.76387578       9.00000000
Se      69.04800000     100.61136731       9.00000000
Se      70.69200000     103.45885884       9.00000000
Se      72.33600000     106.30635037       9.00000000
Se      73.98000000     109.15384189       9.00000000
Se      75.62400000     112.00133342       9.00000000
Se      77.26800000     114.84882495       9.00000000
Se      78.91200000     117.69631648       9.00000000
Se       0.00000000      72.13645203       9.00000000
Se      23.01600000      15.18662148       9.00000000
Se      24.66000000      18.03411301       9.00000000
Se      26.30400000      20.88160454       9.00000000
Se      27.94800000      23.72909606       9.00000000
Se      29.59200000      26.57658759       9.00000000
Se      31.23600000      29.42407912       9.00000000
Se      32.88000000      32.27157065       9.00000000
Se      34.52400000      35.11906217       9.00000000
Se      36.16800000      37.96655370       9.00000000
Se      37.81200000      40.81404523       9.00000000
Se      39.45600000      43.66153676       9.00000000
Se      41.10000000      46.50902828       9.00000000
Se      42.74400000      49.35651981       9.00000000
Se      44.38800000      52.20401134       9.00000000
Se      46.03200000      55.05150287       9.00000000
Se      47.67600000      57.89899440       9.00000000
Se      49.32000000      60.74648592       9.00000000
Se      50.96400000      63.59397745       9.00000000
Se      52.60800000      66.44146898       9.00000000
Se      54.25200000      69.28896051       9.00000000
Se      55.89600000      72.13645203       9.00000000
Se      57.54000000      74.98394356       9.00000000
Se      59.18400000      77.83143509       9.00000000
Se      60.82800000      80.67892662       9.00000000
Se      62.47200000      83.52641814       9.00000000
Se      64.11600000      86.37390967       9.00000000
Se      65.76000000      89.22140120       9.00000000
Se      67.40400000      92.06889273       9.00000000
Se      69.04800000      94.91638425       9.00000000
Se      70.69200000      97.76387578       9.00000000
Se      72.33600000     100.61136731       9.00000000
Se      73.98000000     103.45885884       9.00000000
Se      75.62400000     106.30635037       9.00000000
Se      77.26800000     109.15384189       9.00000000
Se      78.91200000     112.00133342       9.00000000
Se       0.00000000      66.44146898       9.00000000
Se      27.94800000      18.03411301       9.00000000
Se      29.59200000      20.88160454       9.00000000
Se      31.23600000      23.72909606       9.00000000
Se      32.88000000      26.57658759       9.00000000
Se      34.52400000      29.42407912       9.00000000
Se      36.16800000      32.27157065       9.00000000
Se      37.81200000      35.11906217       9.00000000
Se      39.45600000      37.96655370       9.00000000
Se      41.10000000      40.81404523       9.00000000
Se      42.74400000      43.66153676       9.00000000
Se      44.38800000      46.50902828       9.00000000
Se      46.03200000      49.35651981       9.00000000
Se      47.67600000      52.20401134       9.00000000
Se      49.32000000      55.05150287       9.00000000
Se      50.96400000      57.89899440       9.00000000
Se      52.60800000      60.74648592       9.00000000
Se      54.25200000      63.59397745       9.00000000
Se      55.89600000      66.44146898       9.00000000
Se      57.54000000      69.28896051       9.00000000
Se      59.18400000      72.13645203       9.00000000
Se      60.82800000      74.98394356       9.00000000
Se      62.47200000      77.83143509       9.00000000
Se      64.11600000      80.67892662       9.00000000
Se      65.76000000      83.52641814       9.00000000
Se      67.40400000      86.37390967       9.00000000
Se      69.04800000      89.22140120       9.00000000
Se      70.69200000      92.06889273       9.00000000
Se      72.33600000      94.91638425       9.00000000
Se      73.98000000      97.76387578       9.00000000
Se      75.62400000     100.61136731       9.00000000
Se      77.26800000     103.45885884       9.00000000
Se      78.91200000     106.30635037       9.00000000
Se      -0.00000000      60.74648592       9.00000000
Se      32.88000000      20.88160454       9.00000000
Se      34.52400000      23.72909606       9.00000000
Se      36.16800000      26.57658759       9.00000000
Se      37.81200000      29.42407912       9.00000000
Se      39.45600000      32.27157065       9.00000000
Se      41.10000000      35.11906217       9.00000000
Se      42.74400000      37.96655370       9.00000000
Se      44.38800000      40.81404523       9.00000000
Se      46.03200000      43.66153676       9.00000000
Se      47.67600000      46.50902828       9.00000000
Se      49.32000000      49.35651981       9.00000000
Se      50.96400000      52.20401134       9.00000000
Se      52.60800000      55.05150287       9.00000000
Se      54.25200000      57.89899440       9.00000000
Se      55.89600000      60.74648592       9.00000000
Se      57.54000000      63.59397745       9.00000000
Se      59.18400000      66.44146898       9.00000000
Se      60.82800000      69.28896051       9.00000000
Se      62.47200000      72.13645203       9.00000000
Se      64.11600000      74.98394356       9.00000000
Se      65.76000000      77.83143509       9.00000000
Se      67.40400000      80.67892662       9.00000000
Se      69.04800000      83.52641814       9.00000000
Se      70.69200000      86.37390967       9.00000000
Se      72.33600000      89.22140120       9.00000000
Se      73.98000000      92.06889273       9.00000000
Se      75.62400000      94.91638425       9.00000000
Se      77.26800000      97.76387578       9.00000000
Se      78.91200000     100.61136731       9.00000000
Se       0.00000000      55.05150287       9.00000000
Se      37.81200000      23.72909606       9.00000000
Se      39.45600000      26.57658759       9.00000000
Se      41.10000000      29.42407912       9.00000000
Se      42.74400000      32.27157065       9.00000000
Se      44.38800000      35.11906217       9.00000000
Se      46.03200000      37.96655370       9.00000000
Se      47.67600000      40.81404523       9.00000000
Se      49.32000000      43.66153676       9.00000000
Se      50.96400000      46.50902828       9.00000000
Se      52.60800000      49.35651981       9.00000000
Se      54.25200000      52.20401134       9.00000000
Se      55.89600000      55.05150287       9.00000000
Se      57.54000000      57.89899440       9.00000000
Se      59.18400000      60.74648592       9.00000000
Se      60.82800000      63.59397745       9.00000000
Se      62.47200000      66.44146898       9.00000000
Se      64.11600000      69.28896051       9.00000000
Se      65.76000000      72.13645203       9.00000000
Se      67.40400000      74.98394356       9.00000000
Se      69.04800000      77.83143509       9.00000000
Se      70.69200000      80.67892662       9.00000000
Se      72.33600000      83.52641814       9.00000000
Se      73.98000000      86.37390967       9.00000000
Se      75.62400000      89.22140120       9.00000000
Se      77.26800000      92.06889273       9.00000000
Se      78.91200000      94.91638425       9.00000000
Se       0.00000000      49.35651981       9.00000000
Se      42.74400000      26.57658759       9.00000000
Se      44.38800000      29.42407912       9.00000000
Se      46.03200000      32.27157065       9.00000000
Se      47.67600000      35.11906217       9.00000000
Se      49.32000000      37.96655370       9.00000000
Se      50.96400000      40.81404523       9.00000000
Se      52.60800000      43.66153676       9.00000000
Se      54.25200000      46.50902828       9.00000000
Se      55.89600000      49.35651981       9.00000000
Se      57.54000000      52.20401134       9.00000000
Se      59.18400000      55.05150287       9.00000000
Se      60.82800000      57.89899440       9.00000000
Se      62.47200000      60.74648592       9.00000000
Se      64.11600000      63.59397745       9.00000000
Se      65.76000000      66.44146898       9.00000000
Se      67.40400000      69.28896051       9.00000000
Se      69.04800000      72.13645203       9.00000000
Se      70.69200000      74.98394356       9.00000000
Se      72.33600000      77.83143509       9.00000000
Se      73.98000000      80.67892662       9.00000000
Se      75.62400000      83.52641814       9.00000000
Se      77.26800000      86.37390967       9.00000000
Se      78.91200000      89.22140120       9.00000000
Se       0.00000000      43.66153676       9.00000000
Se      47.67600000      29.42407912       9.00000000
Se      49.32000000      32.27157065       9.00000000
Se      50.96400000      35.11906217       9.00000000
Se      52.60800000      37.96655370       9.00000000
Se      54.25200000      40.81404523       9.00000000
Se      55.89600000      43.66153676       9.00000000
Se      57.54000000      46.50902828       9.00000000
Se      59.18400000      49.35651981       9.00000000
Se      60.82800000      52.20401134       9.00000000
Se      62.47200000      55.05150287       9.00000000
Se      64.11600000      57.89899440       9.00000000
Se      65.76000000      60.74648592       9.00000000
Se      67.40400000      63.59397745       9.00000000
Se      69.04800000      66.44146898       9.00000000
Se      70.69200000      69.28896051       9.00000000
Se      72.33600000      72.13645203       9.00000000
Se      73.98000000      74.98394356       9.00000000
Se      75.62400000      77.83143509       9.00000000
Se      77.26800000      80.67892662       9.00000000
Se      78.91200000      83.52641814       9.00000000
Se       0.00000000      37.96655370       9.00000000
Se      52.60800000      32.27157065       9.00000000
Se      54.25200000      35.11906217       9.00000000
Se      55.89600000      37.96655370       9.00000000
Se      57.54000000      40.81404523       9.00000000
Se      59.18400000      43.66153676       9.00000000
Se      60.82800000      46.50902828       9.00000000
Se      62.47200000      49.35651981       9.00000000
Se      64.11600000      52.20401134       9.00000000
Se      65.76000000      55.05150287       9.00000000
Se      67.40400000      57.89899440       9.00000000
Se      69.04800000      60.74648592       9.00000000
Se      70.69200000      63.59397745       9.00000000
Se      72.33600000      66.44146898       9.00000000
Se      73.98000000      69.28896051       9.00000000
Se      75.62400000      72.13645203       9.00000000
Se      77.26800000      74.98394356       9.00000000
Se      78.91200000      77.83143509       9.00000000
Se       0.00000000      32.27157065       9.00000000
Se      57.54000000      35.11906217       9.00000000
Se      59.18400000      37.96655370       9.00000000
Se      60.82800000      40.81404523       9.00000000
Se      62.47200000      43.66153676       9.00000000
Se      64.11600000      46.50902828       9.00000000
Se      65.76000000      49.35651981       9.00000000
Se      67.40400000      52.20401134       9.00000000
Se      69.04800000      55.05150287       9.00000000
Se      70.69200000      57.89899440       9.00000000
Se      72.33600000      60.74648592       9.00000000
Se      73.98000000      63.59397745       9.00000000
Se      75.62400000      66.44146898       9.00000000
Se      77.26800000      69.28896051       9.00000000
Se      78.91200000      72.13645203       9.00000000
Se       0.00000000      26.57658759       9.00000000
Se      62.47200000      37.96655370       9.00000000
Se      64.11600000      40.81404523       9.00000000
Se      65.76000000      43.66153676       9.00000000
Se      67.40400000      46.50902828       9.00000000
Se      69.04800000      49.35651981       9.00000000
Se      70.69200000      52.20401134       9.00000000
Se      72.33600000      55.05150287       9.00000000
Se      73.98000000      57.89899440       9.00000000
Se      75.62400000      60.74648592       9.00000000
Se      77.26800000      63.59397745       9.00000000
Se      78.91200000      66.44146898       9.00000000
Se       0.00000000      20.88160454       9.00000000
Se      67.40400000      40.81404523       9.00000000
Se      69.04800000      43.66153676       9.00000000
Se      70.69200000      46.50902828       9.00000000
Se      72.33600000      49.35651981       9.00000000
Se      73.98000000      52.20401134       9.00000000
Se      75.62400000      55.05150287       9.00000000
Se      77.26800000      57.89899440       9.00000000
Se      78.91200000      60.74648592       9.00000000
Se       0.00000000      15.18662148       9.00000000
Se      72.33600000      43.66153676       9.00000000
Se      73.98000000      46.50902828       9.00000000
Se      75.62400000      49.35651981       9.00000000
Se      77.26800000      52.20401134       9.00000000
Se      78.91200000      55.05150287       9.00000000
Se       0.00000000       9.49163843       9.00000000
Se      77.26800000      46.50902828       9.00000000
Se      78.91200000      49.35651981       9.00000000
Se       0.00000000       3.79665537       9.00000000
Mo      -1.44478825      88.27572266      17.16400000
Mo       0.09859976      91.17897901      17.16400000
Mo       1.64198776      94.08223537      17.16400000
Mo      -1.24557650      82.58422491      17.16400000
Mo       0.29781151      85.48748126      17.16400000
Mo       1.84119951      88.39073762      17.16400000
Mo       3.38458752      91.29399397      17.16400000
Mo       4.92797552      94.19725033      17.16400000
Mo       6.47136353      97.10050668      17.16400000
Mo      -1.04636475      76.89272715      17.16400000
Mo       0.49702326      79.79598351      17.16400000
Mo       2.04041126      82.69923986      17.16400000
Mo       3.58379927      85.60249622      17.16400000
Mo       5.12718727      88.50575257      17.16400000
Mo       6.67057528      91.40900893      17.16400000
Mo       8.21396328      94.31226529      17.16400000
Mo       9.75735129      97.21552164      17.16400000
Mo      11.30073929     100.11877800      17.16400000
Mo      -0.84715300      71.20122940      17.16400000
Mo       0.69623501      74.10448575      17.16400000
Mo       2.23962301      77.00774211      17.16400000
Mo       3.78301102      79.91099846      17.16400000
Mo       5.32639902      82.81425482      17.16400000
Mo       6.86978703      85.71751118      17.16400000
Mo       8.41317503      88.62076753      17.16400000
Mo       9.95656304      91.52402389      17.16400000
Mo      11.49995104      94.42728024      17.16400000
Mo      13.04333905      97.33053660      17.16400000
Mo      14.58672705     100.23379295      17.16400000
Mo      16.13011506     103.13704931      17.16400000
Mo      -0.64794125      65.50973164      17.16400000
Mo       0.89544676      68.41298800      17.16400000
Mo       2.43883476      71.31624436      17.16400000
Mo       3.98222277      74.21950071      17.16400000
Mo       5.52561077      77.12275707      17.16400000
Mo       7.06899878      80.02601342      17.16400000
Mo       8.61238678      82.92926978      17.16400000
Mo      10.15577479      85.83252613      17.16400000
Mo      11.69916279      88.73578249      17.16400000
Mo      13.24255080      91.63903884      17.16400000
Mo      14.78593880      94.54229520      17.16400000
Mo      16.32932681      97.44555156      17.16400000
Mo      17.87271481     100.34880791      17.16400000
Mo      19.41610282     103.25206427      17.16400000
Mo      20.95949082     106.15532062      17.16400000
Mo      -0.44872950      59.81823389      17.16400000
Mo       1.09465851      62.72149025      17.16400000
Mo       2.63804651      65.62474660      17.16400000
Mo       4.18143452      68.52800296      17.16400000
Mo       5.72482252      71.43125931      17.16400000
Mo       7.26821053      74.33451567      17.16400000
Mo       8.81159853      77.23777202      17.16400000
Mo      10.35498654      80.14102838      17.16400000
Mo      11.89837454      83.04428474      17.16400000
Mo      13.44176255      85.94754109      17.16400000
Mo      14.98515055      88.85079745      17.16400000
Mo      16.52853856      91.75405380      17.16400000
Mo      18.07192656      94.65731016      17.16400000
Mo      19.61531457      97.56056651      17.16400000
Mo      21.15870257     100.46382287      17.16400000
Mo      22.70209058     103.36707923      17.16400000
Mo      24.24547858     106.27033558      17.16400000
Mo      25.78886659     109.17359194      17.16400000
Mo      -0.24951775      54.12673614      17.16400000
Mo       1.29387026      57.02999249      17.16400000
Mo       2.83725826      59.93324885      17.16400000
Mo       4.38064627      62.83650520      17.16400000
Mo       5.92403427      65.73976156      17.16400000
Mo       7.46742228      68.64301792      17.16400000
Mo       9.01081028      71.54627427      17.16400000
Mo      10.55419829      74.44953063      17.16400000
Mo      12.09758629      77.35278698      17.16400000
Mo      13.64097430      80.25604334      17.16400000
Mo      15.18436230      83.15929969      17.16400000
Mo      16.72775031      86.06255605      17.16400000
Mo      18.27113831      88.96581240      17.16400000
Mo      19.81452632      91.86906876      17.16400000
Mo      21.35791432      94.77232512      17.16400000
Mo      22.90130233      97.67558147      17.16400000
Mo      24.44469033     100.57883783      17.16400000
Mo      25.98807834     103.48209418      17.16400000
Mo      27.53146634     106.38535054      17.16400000
Mo      29.07485435     109.28860689      17.16400000
Mo      30.61824235     112.19186325      17.16400000
Mo      -0.05030600      48.43523838      17.16400000
Mo       1.49308201      51.33849474      17.16400000
Mo       3.03647001      54.24175110      17.16400000
Mo       4.57985802      57.14500745      17.16400000
Mo       6.12324602      60.04826381      17.16400000
Mo       7.66663403      62.95152016      17.16400000
Mo       9.21002203      65.85477652      17.16400000
Mo      10.75341004      68.75803287      17.16400000
Mo      12.29679804      71.66128923      17.16400000
Mo      13.84018605      74.56454558      17.16400000
Mo      15.38357405      77.46780194      17.16400000
Mo      16.92696206      80.37105830      17.16400000
Mo      18.47035006      83.27431465      17.16400000
Mo      20.01373807      86.17757101      17.16400000
Mo      21.55712607      89.08082736      17.16400000
Mo      23.10051408      91.98408372      17.16400000
Mo      24.64390208      94.88734007      17.16400000
Mo      26.18729009      97.79059643      17.16400000
Mo      27.73067809     100.69385278      17.16400000
Mo      29.27406610     103.59710914      17.16400000
Mo      30.81745410     106.50036550      17.16400000
Mo      32.36084211     109.40362185      17.16400000
Mo      33.90423011     112.30687821      17.16400000
Mo      35.44761812     115.21013456      17.16400000
Mo       0.14890575      42.74374063      17.16400000
Mo       1.69229376      45.64699699      17.16400000
Mo       3.23568176      48.55025334      17.16400000
Mo       4.77906977      51.45350970      17.16400000
Mo       6.32245777      54.35676605      17.16400000
Mo       7.86584578      57.26002241      17.16400000
Mo       9.40923378      60.16327876      17.16400000
Mo      10.95262179      63.06653512      17.16400000
Mo      12.49600979      65.96979148      17.16400000
Mo      14.03939780      68.87304783      17.16400000
Mo      15.58278580      71.77630419      17.16400000
Mo      17.12617381      74.67956054      17.16400000
Mo      18.66956181      77.58281690      17.16400000
Mo      20.21294982      80.48607325      17.16400000
Mo      21.75633782      83.38932961      17.16400000
Mo      23.29972583      86.29258596      17.16400000
Mo      24.84311383      89.19584232      17.16400000
Mo      26.38650184      92.09909868      17.16400000
Mo      27.92988984      95.00235503      17.16400000
Mo      29.47327785      97.90561139      17.16400000
Mo      31.01666585     100.80886774      17.16400000
Mo      32.56005386     103.71212410      17.16400000
Mo      34.10344186     106.61538045      17.16400000
Mo      35.64682987     109.51863681      17.16400000
Mo      37.19021787     112.42189316      17.16400000
Mo      38.73360588     115.32514952      17.16400000
Mo      40.27699388     118.22840588      17.16400000
Mo       0.34811750      37.05224288      17.16400000
Mo       1.89150551      39.95549923      17.16400000
Mo       3.43489351      42.85875559      17.16400000
Mo       4.97828152      45.76201194      17.16400000
Mo       6.52166952      48.66526830      17.16400000
Mo       8.06505753      51.56852465      17.16400000
Mo       9.60844553      54.47178101      17.16400000
Mo      11.15183354      57.37503737      17.16400000
Mo      12.69522154      60.27829372      17.16400000
Mo      14.23860955      63.18155008      17.16400000
Mo      15.78199755      66.08480643      17.16400000
Mo      17.32538556      68.98806279      17.16400000
Mo      18.86877356      71.89131914      17.16400000
Mo      20.41216157      74.79457550      17.16400000
Mo      21.95554957      77.69783186      17.16400000
Mo      23.49893758      80.60108821      17.16400000
Mo      25.04232558      83.50434457      17.16400000
Mo      26.58571359      86.40760092      17.16400000
Mo      28.12910159      89.31085728      17.16400000
Mo      29.67248960      92.21411363      17.16400000
Mo      31.21587760      95.11736999      17.16400000
Mo      32.75926561      98.02062634      17.16400000
Mo      34.30265361     100.92388270      17.16400000
Mo      35.84604162     103.82713906      17.16400000
Mo      37.38942962     106.73039541      17.16400000
Mo      38.93281763     109.63365177      17.16400000
Mo      40.47620563     112.53690812      17.16400000
Mo      42.01959364     115.44016448      17.16400000
Mo      43.56298164     118.34342083      17.16400000
Mo      45.10636965     121.24667719      17.16400000
Mo       0.54732925      31.36074512      17.16400000
Mo       2.09071726      34.26400148      17.16400000
Mo       3.63410526      37.16725783      17.16400000
Mo       5.17749327      40.07051419      17.16400000
Mo       6.72088127      42.97377055      17.16400000
Mo       8.26426928      45.87702690      17.16400000
Mo       9.80765728      48.78028326      17.16400000
Mo      11.35104529      51.68353961      17.16400000
Mo      12.89443329      54.58679597      17.16400000
Mo      14.43782130      57.49005232      17.16400000
Mo      15.98120930      60.39330868      17.16400000
Mo      17.52459731      63.29656503      17.16400000
Mo      19.06798531      66.19982139      17.16400000
Mo      20.61137332      69.10307775      17.16400000
Mo      22.15476132      72.00633410      17.16400000
Mo      23.69814933      74.90959046      17.16400000
Mo      25.24153733      77.81284681      17.16400000
Mo      26.78492534      80.71610317      17.16400000
Mo      28.32831334      83.61935952      17.16400000
Mo      29.87170135      86.52261588      17.16400000
Mo      31.41508935      89.42587224      17.16400000
Mo      32.95847736      92.32912859      17.16400000
Mo      34.50186536      95.23238495      17.16400000
Mo      36.04525337      98.13564130      17.16400000
Mo      37.58864137     101.03889766      17.16400000
Mo      39.13202938     103.94215401      17.16400000
Mo      40.67541738     106.84541037      17.16400000
Mo      42.21880539     109.74866672      17.16400000
Mo      43.76219339     112.65192308      17.16400000
Mo      45.30558140     115.55517944      17.16400000
Mo      46.84896940     118.45843579      17.16400000
Mo      48.39235741     121.36169215      17.16400000
Mo      49.93574541     124.26494850      17.16400000
Mo       0.74654100      25.66924737      17.16400000
Mo       2.28992901      28.57250373      17.16400000
Mo       3.83331701      31.47576008      17.16400000
Mo       5.37670502      34.37901644      17.16400000
Mo       6.92009302      37.28227279      17.16400000
Mo       8.46348103      40.18552915      17.16400000
Mo      10.00686903      43.08878550      17.16400000
Mo      11.55025704      45.99204186      17.16400000
Mo      13.09364504      48.89529821      17.16400000
Mo      14.63703305      51.79855457      17.16400000
Mo      16.18042105      54.70181093      17.16400000
Mo      17.72380906      57.60506728      17.16400000
Mo      19.26719706      60.50832364      17.16400000
Mo      20.81058507      63.41157999      17.16400000
Mo      22.35397307      66.31483635      17.16400000
Mo      23.89736108      69.21809270      17.16400000
Mo      25.44074908      72.12134906      17.16400000
Mo      26.98413709      75.02460541      17.16400000
Mo      28.52752509      77.92786177      17.16400000
Mo      30.07091310      80.83111813      17.16400000
Mo      31.61430110      83.73437448      17.16400000
Mo      33.15768911      86.63763084      17.16400000
Mo      34.70107711      89.54088719      17.16400000
Mo      36.24446512      92.44414355      17.16400000
Mo      37.78785312      95.34739990      17.16400000
Mo      39.33124113      98.25065626      17.16400000
Mo      40.87462913     101.15391262      17.16400000
Mo      42.41801714     104.05716897      17.16400000
Mo      43.96140514     106.96042533      17.16400000
Mo      45.50479315     109.86368168      17.16400000
Mo      47.04818115     112.76693804      17.16400000
Mo      48.59156916     115.67019439      17.16400000
Mo      50.13495716     118.57345075      17.16400000
Mo      51.67834517     121.47670710      17.16400000
Mo      53.22173317     124.37996346      17.16400000
Mo      54.76512118     127.28321982      17.16400000
Mo       0.94575275      19.97774962      17.16400000
Mo       2.48914076      22.88100597      17.16400000
Mo       4.03252876      25.78426233      17.16400000
Mo       5.57591677      28.68751868      17.16400000
Mo       7.11930477      31.59077504      17.16400000
Mo       8.66269278      34.49403139      17.16400000
Mo      10.20608078      37.39728775      17.16400000
Mo      11.74946879      40.30054411      17.16400000
Mo      13.29285679      43.20380046      17.16400000
Mo      14.83624480      46.10705682      17.16400000
Mo      16.37963280      49.01031317      17.16400000
Mo      17.92302081      51.91356953      17.16400000
Mo      19.46640881      54.81682588      17.16400000
Mo      21.00979682      57.72008224      17.16400000
Mo      22.55318482      60.62333859      17.16400000
Mo      24.09657283      63.52659495      17.16400000
Mo      25.63996083      66.42985131      17.16400000
Mo      27.18334884      69.33310766      17.16400000
Mo      28.72673684      72.23636402      17.16400000
Mo      30.27012485      75.13962037      17.16400000
Mo      31.81351285      78.04287673      17.16400000
Mo      33.35690086      80.94613308      17.16400000
Mo      34.90028886      83.84938944      17.16400000
Mo      36.44367687      86.75264580      17.16400000
Mo      37.98706487      89.65590215      17.16400000
Mo      39.53045288      92.55915851      17.16400000
Mo      41.07384088      95.46241486      17.16400000
Mo      42.61722889      98.36567122      17.16400000
Mo      44.16061689     101.26892757      17.16400000
Mo      45.70400490     104.17218393      17.16400000
Mo      47.24739290     107.07544028      17.16400000
Mo      48.79078091     109.97869664      17.16400000
Mo      50.33416891     112.88195300      17.16400000
Mo      51.87755692     115.78520935      17.16400000
Mo      53.42094492     118.68846571      17.16400000
Mo      54.96433293     121.59172206      17.16400000
Mo      56.50772093     124.49497842      17.16400000
Mo      58.05110894     127.39823477      17.16400000
Mo      59.59449694     130.30149113      17.16400000
Mo       1.14496450      14.28625186      17.16400000
Mo       2.68835251      17.18950822      17.16400000
Mo       4.23174051      20.09276457      17.16400000
Mo       5.77512852      22.99602093      17.16400000
Mo       7.31851652      25.89927729      17.16400000
Mo       8.86190453      28.80253364      17.16400000
Mo      10.40529253      31.70579000      17.16400000
Mo      11.94868054      34.60904635      17.16400000
Mo      13.49206854      37.51230271      17.16400000
Mo      15.03545655      40.41555906      17.16400000
Mo      16.57884455      43.31881542      17.16400000
Mo      18.12223256      46.22207177      17.16400000
Mo      19.66562056      49.12532813      17.16400000
Mo      21.20900857      52.02858449      17.16400000
Mo      22.75239657      54.93184084      17.16400000
Mo      24.29578458      57.83509720      17.16400000
Mo      25.83917258      60.73835355      17.16400000
Mo      27.38256059      63.64160991      17.16400000
Mo      28.92594859      66.54486626      17.16400000
Mo      30.46933660      69.44812262      17.16400000
Mo      32.01272460      72.35137897      17.16400000
Mo      33.55611261      75.25463533      17.16400000
Mo      35.09950061      78.15789169      17.16400000
Mo      36.64288862      81.06114804      17.16400000
Mo      38.18627662      83.96440440      17.16400000
Mo      39.72966463      86.86766075      17.16400000
Mo      41.27305263      89.77091711      17.16400000
Mo      42.81644064      92.67417346      17.16400000
Mo      44.35982864      95.57742982      17.16400000
Mo      45.90321665      98.48068618      17.16400000
Mo      47.44660465     101.38394253      17.16400000
Mo      48.98999266     104.28719889      17.16400000
Mo      50.53338066     107.19045524      17.16400000
Mo      52.07676867     110.09371160      17.16400000
Mo      53.62015667     112.99696795      17.16400000
Mo      55.16354468     115.90022431      17.16400000
Mo      56.70693268     118.80348066      17.16400000
Mo      58.25032069     121.70673702      17.16400000
Mo      59.79370869     124.60999338      17.16400000
Mo      61.33709670     127.51324973      17.16400000
Mo      62.88048470     130.41650609      17.16400000
Mo      64.42387271     133.31976244      17.16400000
Mo       1.34417625       8.59475411      17.16400000
Mo       2.88756426      11.49801046      17.16400000
Mo       4.43095226      14.40126682      17.16400000
Mo       5.97434027      17.30452318      17.16400000
Mo       7.51772827      20.20777953      17.16400000
Mo       9.06111628      23.11103589      17.16400000
Mo      10.60450428      26.01429224      17.16400000
Mo      12.14789229      28.91754860      17.16400000
Mo      13.69128029      31.82080495      17.16400000
Mo      15.23466830      34.72406131      17.16400000
Mo      16.77805630      37.62731767      17.16400000
Mo      18.32144431      40.53057402      17.16400000
Mo      19.86483231      43.43383038      17.16400000
Mo      21.40822032      46.33708673      17.16400000
Mo      22.95160832      49.24034309      17.16400000
Mo      24.49499633      52.14359944      17.16400000
Mo      26.03838433      55.04685580      17.16400000
Mo      27.58177234      57.95011215      17.16400000
Mo      29.12516034      60.85336851      17.16400000
Mo      30.66854835      63.75662487      17.16400000
Mo      32.21193635      66.65988122      17.16400000
Mo      33.75532436      69.56313758      17.16400000
Mo      35.29871236      72.46639393      17.16400000
Mo      36.84210037      75.36965029      17.16400000
Mo      38.38548837      78.27290664      17.16400000
Mo      39.92887638      81.17616300      17.16400000
Mo      41.47226438      84.07941935      17.16400000
Mo      43.01565239      86.98267571      17.16400000
Mo      44.55904039      89.88593207      17.16400000
Mo      46.10242840      92.78918842      17.16400000
Mo      47.64581640      95.69244478      17.16400000
Mo      49.18920441      98.59570113      17.16400000
Mo      50.73259241     101.49895749      17.16400000
Mo      52.27598042     104.40221384      17.16400000
Mo      53.81936842     107.30547020      17.16400000
Mo      55.36275643     110.20872656      17.16400000
Mo      56.90614443     113.11198291      17.16400000
Mo      58.44953244     116.01523927      17.16400000
Mo      59.99292044     118.91849562      17.16400000
Mo      61.53630845     121.82175198      17.16400000
Mo      63.07969645     124.72500833      17.16400000
Mo      64.62308446     127.62826469      17.16400000
Mo      66.16647246     130.53152104      17.16400000
Mo      67.70986047     133.43477740      17.16400000
Mo      69.25324847     136.33803376      17.16400000
Mo       0.00000000       0.00000000      17.16400000
Mo       1.54338800       2.90325636      17.16400000
Mo       3.08677601       5.80651271      17.16400000
Mo       4.63016401       8.70976907      17.16400000
Mo       6.17355202      11.61302542      17.16400000
Mo       7.71694002      14.51628178      17.16400000
Mo       9.26032803      17.41953813      17.16400000
Mo      10.80371603      20.32279449      17.16400000
Mo      12.34710404      23.22605084      17.16400000
Mo      13.89049204      26.12930720      17.16400000
Mo      15.43388005      29.03256356      17.16400000
Mo      16.97726805      31.93581991      17.16400000
Mo      18.52065606      34.83907627      17.16400000
Mo      20.06404406      37.74233262      17.16400000
Mo      21.60743207      40.64558898      17.16400000
Mo      23.15082007      43.54884533      17.16400000
Mo      24.69420808      46.45210169      17.16400000
Mo      26.23759608      49.35535805      17.16400000
Mo      27.78098409      52.25861440      17.16400000
Mo      29.32437209      55.16187076      17.16400000
Mo      30.86776010      58.06512711      17.16400000
Mo      32.41114810      60.96838347      17.16400000
Mo      33.95453611      63.87163982      17.16400000
Mo      35.49792411      66.77489618      17.16400000
Mo      37.04131212      69.67815253      17.16400000
Mo      38.58470012      72.58140889      17.16400000
Mo      40.12808813      75.48466525      17.16400000
Mo      41.67147613      78.38792160      17.16400000
Mo      43.21486414      81.29117796      17.16400000
Mo      44.75825214      84.19443431      17.16400000
Mo      46.30164015      87.09769067      17.16400000
Mo      47.84502815      90.00094702      17.16400000
Mo      49.38841616      92.90420338      17.16400000
Mo      50.93180416      95.80745973      17.16400000
Mo      52.47519217      98.71071609      17.16400000
Mo      54.01858017     101.61397245      17.16400000
Mo      55.56196818     104.51722880      17.16400000
Mo      57.10535618     107.42048516      17.16400000
Mo      58.64874419     110.32374151      17.16400000
Mo      60.19213219     113.22699787      17.16400000
Mo      61.73552020     116.13025422      17.16400000
Mo      63.27890820     119.03351058      17.16400000
Mo      64.82229621     121.93676694      17.16400000
Mo      66.36568421     124.84002329      17.16400000
Mo      67.90907222     127.74327965      17.16400000
Mo      69.45246022     130.64653600      17.16400000
Mo      70.99584823     133.54979236      17.16400000
Mo      72.53923623     136.45304871      17.16400000
Mo      74.08262424     139.35630507      17.16400000
Mo       4.82937576       3.01827131      17.16400000
Mo       6.37276377       5.92152767      17.16400000
Mo       7.91615177       8.82478402      17.16400000
Mo       9.45953978      11.72804038      17.16400000
Mo      11.00292778      14.63129674      17.16400000
Mo      12.54631579      17.53455309      17.16400000
Mo      14.08970379      20.43780945      17.16400000
Mo      15.63309180      23.34106580      17.16400000
Mo      17.17647980      26.24432216      17.16400000
Mo      18.71986781      29.14757851      17.16400000
Mo      20.26325581      32.05083487      17.16400000
Mo      21.80664382      34.95409122      17.16400000
Mo      23.35003182      37.85734758      17.16400000
Mo      24.89341983      40.76060394      17.16400000
Mo      26.43680783      43.66386029      17.16400000
Mo      27.98019584      46.56711665      17.16400000
Mo      29.52358384      49.47037300      17.16400000
Mo      31.06697185      52.37362936      17.16400000
Mo      32.61035985      55.27688571      17.16400000
Mo      34.15374786      58.18014207      17.16400000
Mo      35.69713586      61.08339843      17.16400000
Mo      37.24052387      63.98665478      17.16400000
Mo      38.78391187      66.88991114      17.16400000
Mo      40.32729988      69.79316749      17.16400000
Mo      41.87068788      72.69642385      17.16400000
Mo      43.41407589      75.59968020      17.16400000
Mo      44.95746389      78.50293656      17.16400000
Mo      46.50085190      81.40619291      17.16400000
Mo      48.04423990      84.30944927      17.16400000
Mo      49.58762791      87.21270563      17.16400000
Mo      51.13101591      90.11596198      17.16400000
Mo      52.67440392      93.01921834      17.16400000
Mo      54.21779192      95.92247469      17.16400000
Mo      55.76117993      98.82573105      17.16400000
Mo      57.30456793     101.72898740      17.16400000
Mo      58.84795594     104.63224376      17.16400000
Mo      60.39134394     107.53550011      17.16400000
Mo      61.93473195     110.43875647      17.16400000
Mo      63.47811995     113.34201283      17.16400000
Mo      65.02150796     116.24526918      17.16400000
Mo      66.56489596     119.14852554      17.16400000
Mo      68.10828397     122.05178189      17.16400000
Mo      69.65167197     124.95503825      17.16400000
Mo      71.19505998     127.85829460      17.16400000
Mo      72.73844798     130.76155096      17.16400000
Mo      74.28183599     133.66480732      17.16400000
Mo      75.82522399     136.56806367      17.16400000
Mo      77.36861200     139.47132003      17.16400000
Mo       9.65875153       6.03654263      17.16400000
Mo      11.20213953       8.93979898      17.16400000
Mo      12.74552754      11.84305534      17.16400000
Mo      14.28891554      14.74631169      17.16400000
Mo      15.83230355      17.64956805      17.16400000
Mo      17.37569155      20.55282440      17.16400000
Mo      18.91907956      23.45608076      17.16400000
Mo      20.46246756      26.35933712      17.16400000
Mo      22.00585557      29.26259347      17.16400000
Mo      23.54924357      32.16584983      17.16400000
Mo      25.09263158      35.06910618      17.16400000
Mo      26.63601958      37.97236254      17.16400000
Mo      28.17940759      40.87561889      17.16400000
Mo      29.72279559      43.77887525      17.16400000
Mo      31.26618360      46.68213160      17.16400000
Mo      32.80957160      49.58538796      17.16400000
Mo      34.35295961      52.48864432      17.16400000
Mo      35.89634761      55.39190067      17.16400000
Mo      37.43973562      58.29515703      17.16400000
Mo      38.98312362      61.19841338      17.16400000
Mo      40.52651163      64.10166974      17.16400000
Mo      42.06989963      67.00492609      17.16400000
Mo      43.61328764      69.90818245      17.16400000
Mo      45.15667564      72.81143881      17.16400000
Mo      46.70006365      75.71469516      17.16400000
Mo      48.24345165      78.61795152      17.16400000
Mo      49.78683966      81.52120787      17.16400000
Mo      51.33022766      84.42446423      17.16400000
Mo      52.87361567      87.32772058      17.16400000
Mo      54.41700367      90.23097694      17.16400000
Mo      55.96039168      93.13423329      17.16400000
Mo      57.50377968      96.03748965      17.16400000
Mo      59.04716769      98.94074601      17.16400000
Mo      60.59055569     101.84400236      17.16400000
Mo      62.13394370     104.74725872      17.16400000
Mo      63.67733170     107.65051507      17.16400000
Mo      65.22071971     110.55377143      17.16400000
Mo      66.76410771     113.45702778      17.16400000
Mo      68.30749572     116.36028414      17.16400000
Mo      69.85088372     119.26354050      17.16400000
Mo      71.39427173     122.16679685      17.16400000
Mo      72.93765973     125.07005321      17.16400000
Mo      74.48104774     127.97330956      17.16400000
Mo      76.02443574     130.87656592      17.16400000
Mo      77.56782375     133.77982227      17.16400000
Mo      14.48812729       9.05481394      17.16400000
Mo      16.03151530      11.95807030      17.16400000
Mo      17.57490330      14.86132665      17.16400000
Mo      19.11829131      17.76458301      17.16400000
Mo      20.66167931      20.66783936      17.16400000
Mo      22.20506732      23.57109572      17.16400000
Mo      23.74845532      26.47435207      17.16400000
Mo      25.29184333      29.37760843      17.16400000
Mo      26.83523133      32.28086478      17.16400000
Mo      28.37861934      35.18412114      17.16400000
Mo      29.92200734      38.08737750      17.16400000
Mo      31.46539535      40.99063385      17.16400000
Mo      33.00878335      43.89389021      17.16400000
Mo      34.55217136      46.79714656      17.16400000
Mo      36.09555936      49.70040292      17.16400000
Mo      37.63894737      52.60365927      17.16400000
Mo      39.18233537      55.50691563      17.16400000
Mo      40.72572338      58.41017199      17.16400000
Mo      42.26911138      61.31342834      17.16400000
Mo      43.81249939      64.21668470      17.16400000
Mo      45.35588739      67.11994105      17.16400000
Mo      46.89927540      70.02319741      17.16400000
Mo      48.44266340      72.92645376      17.16400000
Mo      49.98605141      75.82971012      17.16400000
Mo      51.52943941      78.73296647      17.16400000
Mo      53.07282742      81.63622283      17.16400000
Mo      54.61621542      84.53947919      17.16400000
Mo      56.15960343      87.44273554      17.16400000
Mo      57.70299143      90.34599190      17.16400000
Mo      59.24637944      93.24924825      17.16400000
Mo      60.78976744      96.15250461      17.16400000
Mo      62.33315545      99.05576096      17.16400000
Mo      63.87654345     101.95901732      17.16400000
Mo      65.41993146     104.86227367      17.16400000
Mo      66.96331946     107.76553003      17.16400000
Mo      68.50670747     110.66878639      17.16400000
Mo      70.05009547     113.57204274      17.16400000
Mo      71.59348348     116.47529910      17.16400000
Mo      73.13687148     119.37855545      17.16400000
Mo      74.68025949     122.28181181      17.16400000
Mo      76.22364749     125.18506816      17.16400000
Mo      77.76703550     128.08832452      17.16400000
Mo      19.31750306      12.07308525      17.16400000
Mo      20.86089106      14.97634161      17.16400000
Mo      22.40427907      17.87959796      17.16400000
Mo      23.94766707      20.78285432      17.16400000
Mo      25.49105508      23.68611068      17.16400000
Mo      27.03444308      26.58936703      17.16400000
Mo      28.57783109      29.49262339      17.16400000
Mo      30.12121909      32.39587974      17.16400000
Mo      31.66460710      35.29913610      17.16400000
Mo      33.20799510      38.20239245      17.16400000
Mo      34.75138311      41.10564881      17.16400000
Mo      36.29477111      44.00890516      17.16400000
Mo      37.83815912      46.91216152      17.16400000
Mo      39.38154712      49.81541788      17.16400000
Mo      40.92493513      52.71867423      17.16400000
Mo      42.46832313      55.62193059      17.16400000
Mo      44.01171114      58.52518694      17.16400000
Mo      45.55509914      61.42844330      17.16400000
Mo      47.09848715      64.33169965      17.16400000
Mo      48.64187515      67.23495601      17.16400000
Mo      50.18526316      70.13821237      17.16400000
Mo      51.72865116      73.04146872      17.16400000
Mo      53.27203917      75.94472508      17.16400000
Mo      54.81542717      78.84798143      17.16400000
Mo      56.35881518      81.75123779      17.16400000
Mo      57.90220318      84.65449414      17.16400000
Mo      59.44559119      87.55775050      17.16400000
Mo      60.98897919      90.46100685      17.16400000
Mo      62.53236720      93.36426321      17.16400000
Mo      64.07575520      96.26751957      17.16400000
Mo      65.61914321      99.17077592      17.16400000
Mo      67.16253121     102.07403228      17.16400000
Mo      68.70591922     104.97728863      17.16400000
Mo      70.24930722     107.88054499      17.16400000
Mo      71.79269523     110.78380134      17.16400000
Mo      73.33608323     113.68705770      17.16400000
Mo      74.87947124     116.59031405      17.16400000
Mo      76.42285924     119.49357041      17.16400000
Mo      77.96624725     122.39682677      17.16400000
Mo      24.14687882      15.09135657      17.16400000
Mo      25.69026683      17.99461292      17.16400000
Mo      27.23365483      20.89786928      17.16400000
Mo      28.77704284      23.80112563      17.16400000
Mo      30.32043084      26.70438199      17.16400000
Mo      31.86381885      29.60763834      17.16400000
Mo      33.40720685      32.51089470      17.16400000
Mo      34.95059486      35.41415106      17.16400000
Mo      36.49398286      38.31740741      17.16400000
Mo      38.03737087      41.22066377      17.16400000
Mo      39.58075887      44.12392012      17.16400000
Mo      41.12414688      47.02717648      17.16400000
Mo      42.66753488      49.93043283      17.16400000
Mo      44.21092289      52.83368919      17.16400000
Mo      45.75431089      55.73694554      17.16400000
Mo      47.29769890      58.64020190      17.16400000
Mo      48.84108690      61.54345826      17.16400000
Mo      50.38447491      64.44671461      17.16400000
Mo      51.92786291      67.34997097      17.16400000
Mo      53.47125092      70.25322732      17.16400000
Mo      55.01463892      73.15648368      17.16400000
Mo      56.55802693      76.05974003      17.16400000
Mo      58.10141493      78.96299639      17.16400000
Mo      59.64480294      81.86625275      17.16400000
Mo      61.18819094      84.76950910      17.16400000
Mo      62.73157895      87.67276546      17.16400000
Mo      64.27496695      90.57602181      17.16400000
Mo      65.81835496      93.47927817      17.16400000
Mo      67.36174296      96.38253452      17.16400000
Mo      68.90513097      99.28579088      17.16400000
Mo      70.44851897     102.18904723      17.16400000
Mo      71.99190698     105.09230359      17.16400000
Mo      73.53529498     107.99555995      17.16400000
Mo      75.07868299     110.89881630      17.16400000
Mo      76.62207099     113.80207266      17.16400000
Mo      78.16545900     116.70532901      17.16400000
Mo      28.97625459      18.10962788      17.16400000
Mo      30.51964259      21.01288424      17.16400000
Mo      32.06303060      23.91614059      17.16400000
Mo      33.60641860      26.81939695      17.16400000
Mo      35.14980661      29.72265330      17.16400000
Mo      36.69319461      32.62590966      17.16400000
Mo      38.23658262      35.52916601      17.16400000
Mo      39.77997062      38.43242237      17.16400000
Mo      41.32335863      41.33567872      17.16400000
Mo      42.86674663      44.23893508      17.16400000
Mo      44.41013464      47.14219144      17.16400000
Mo      45.95352264      50.04544779      17.16400000
Mo      47.49691065      52.94870415      17.16400000
Mo      49.04029865      55.85196050      17.16400000
Mo      50.58368666      58.75521686      17.16400000
Mo      52.12707466      61.65847321      17.16400000
Mo      53.67046267      64.56172957      17.16400000
Mo      55.21385067      67.46498592      17.16400000
Mo      56.75723868      70.36824228      17.16400000
Mo      58.30062668      73.27149864      17.16400000
Mo      59.84401469      76.17475499      17.16400000
Mo      61.38740269      79.07801135      17.16400000
Mo      62.93079070      81.98126770      17.16400000
Mo      64.47417870      84.88452406      17.16400000
Mo      66.01756671      87.78778041      17.16400000
Mo      67.56095471      90.69103677      17.16400000
Mo      69.10434272      93.59429313      17.16400000
Mo      70.64773072      96.49754948      17.16400000
Mo      72.19111873      99.40080584      17.16400000
Mo      73.73450673     102.30406219      17.16400000
Mo      75.27789474     105.20731855      17.16400000
Mo      76.82128274     108.11057490      17.16400000
Mo      78.36467075     111.01383126      17.16400000
Mo      33.80563035      21.12789919      17.16400000
Mo      35.34901836      24.03115555      17.16400000
Mo      36.89240636      26.93441190      17.16400000
Mo      38.43579437      29.83766826      17.16400000
Mo      39.97918237      32.74092462      17.16400000
Mo      41.52257038      35.64418097      17.16400000
Mo      43.06595838      38.54743733      17.16400000
Mo      44.60934639      41.45069368      17.16400000
Mo      46.15273439      44.35395004      17.16400000
Mo      47.69612240      47.25720639      17.16400000
Mo      49.23951040      50.16046275      17.16400000
Mo      50.78289841      53.06371910      17.16400000
Mo      52.32628641      55.96697546      17.16400000
Mo      53.86967442      58.87023182      17.16400000
Mo      55.41306242      61.77348817      17.16400000
Mo      56.95645043      64.67674453      17.16400000
Mo      58.49983843      67.58000088      17.16400000
Mo      60.04322644      70.48325724      17.16400000
Mo      61.58661444      73.38651359      17.16400000
Mo      63.13000245      76.28976995      17.16400000
Mo      64.67339045      79.19302630      17.16400000
Mo      66.21677846      82.09628266      17.16400000
Mo      67.76016646      84.99953902      17.16400000
Mo      69.30355447      87.90279537      17.16400000
Mo      70.84694247      90.80605173      17.16400000
Mo      72.39033048      93.70930808      17.16400000
Mo      73.93371848      96.61256444      17.16400000
Mo      75.47710649      99.51582079      17.16400000
Mo      77.02049449     102.41907715      17.16400000
Mo      78.56388250     105.32233351      17.16400000
Mo      38.63500612      24.14617051      17.16400000
Mo      40.17839412      27.04942686      17.16400000
Mo      41.72178213      29.95268322      17.16400000
Mo      43.26517013      32.85593957      17.16400000
Mo      44.80855814      35.75919593      17.16400000
Mo      46.35194614      38.66245228      17.16400000
Mo      47.89533415      41.56570864      17.16400000
Mo      49.43872215      44.46896500      17.16400000
Mo      50.98211016      47.37222135      17.16400000
Mo      52.52549816      50.27547771      17.16400000
Mo      54.06888617      53.17873406      17.16400000
Mo      55.61227417      56.08199042      17.16400000
Mo      57.15566218      58.98524677      17.16400000
Mo      58.69905018      61.88850313      17.16400000
Mo      60.24243819      64.79175948      17.16400000
Mo      61.78582619      67.69501584      17.16400000
Mo      63.32921420      70.59827220      17.16400000
Mo      64.87260220      73.50152855      17.16400000
Mo      66.41599021      76.40478491      17.16400000
Mo      67.95937821      79.30804126      17.16400000
Mo      69.50276622      82.21129762      17.16400000
Mo      71.04615422      85.11455397      17.16400000
Mo      72.58954223      88.01781033      17.16400000
Mo      74.13293023      90.92106668      17.16400000
Mo      75.67631824      93.82432304      17.16400000
Mo      77.21970624      96.72757940      17.16400000
Mo      78.76309425      99.63083575      17.16400000
Mo      43.46438188      27.16444182      17.16400000
Mo      45.00776989      30.06769818      17.16400000
Mo      46.55115789      32.97095453      17.16400000
Mo      48.09454590      35.87421089      17.16400000
Mo      49.63793390      38.77746724      17.16400000
Mo      51.18132191      41.68072360      17.16400000
Mo      52.72470991      44.58397995      17.16400000
Mo      54.26809792      47.48723631      17.16400000
Mo      55.81148592      50.39049266      17.16400000
Mo      57.35487393      53.29374902      17.16400000
Mo      58.89826193      56.19700538      17.16400000
Mo      60.44164994      59.10026173      17.16400000
Mo      61.98503794      62.00351809      17.16400000
Mo      63.52842595      64.90677444      17.16400000
Mo      65.07181395      67.81003080      17.16400000
Mo      66.61520196      70.71328715      17.16400000
Mo      68.15858996      73.61654351      17.16400000
Mo      69.70197797      76.51979986      17.16400000
Mo      71.24536597      79.42305622      17.16400000
Mo      72.78875398      82.32631258      17.16400000
Mo      74.33214198      85.22956893      17.16400000
Mo      75.87552999      88.13282529      17.16400000
Mo      77.41891799      91.03608164      17.16400000
Mo      78.96230600      93.93933800      17.16400000
Mo      48.29375765      30.18271313      17.16400000
Mo      49.83714565      33.08596949      17.16400000
Mo      51.38053366      35.98922584      17.16400000
Mo      52.92392166      38.89248220      17.16400000
Mo      54.46730967      41.79573856      17.16400000
Mo      56.01069767      44.69899491      17.16400000
Mo      57.55408568      47.60225127      17.16400000
Mo      59.09747368      50.50550762      17.16400000
Mo      60.64086169      53.40876398      17.16400000
Mo      62.18424969      56.31202033      17.16400000
Mo      63.72763770      59.21527669      17.16400000
Mo      65.27102570      62.11853304      17.16400000
Mo      66.81441371      65.02178940      17.16400000
Mo      68.35780171      67.92504576      17.16400000
Mo      69.90118972      70.82830211      17.16400000
Mo      71.44457772      73.73155847      17.16400000
Mo      72.98796573      76.63481482      17.16400000
Mo      74.53135373      79.53807118      17.16400000
Mo      76.07474174      82.44132753      17.16400000
Mo      77.61812974      85.34458389      17.16400000
Mo      79.16151775      88.24784024      17.16400000
Mo      53.12313341      33.20098445      17.16400000
Mo      54.66652142      36.10424080      17.16400000
Mo      56.20990942      39.00749716      17.16400000
Mo      57.75329743      41.91075351      17.16400000
Mo      59.29668543      44.81400987      17.16400000
Mo      60.84007344      47.71726622      17.16400000
Mo      62.38346144      50.62052258      17.16400000
Mo      63.92684945      53.52377894      17.16400000
Mo      65.47023745      56.42703529      17.16400000
Mo      67.01362546      59.33029165      17.16400000
Mo      68.55701346      62.23354800      17.16400000
Mo      70.10040147      65.13680436      17.16400000
Mo      71.64378947      68.04006071      17.16400000
Mo      73.18717748      70.94331707      17.16400000
Mo      74.73056548      73.84657342      17.16400000
Mo      76.27395349      76.74982978      17.16400000
Mo      77.81734149      79.65308614      17.16400000
Mo      79.36072950      82.55634249      17.16400000
Mo      57.95250918      36.21925576      17.16400000
Mo      59.49589718      39.12251211      17.16400000
Mo      61.03928519      42.02576847      17.16400000
Mo      62.58267319      44.92902483      17.16400000
Mo      64.12606120      47.83228118      17.16400000
Mo      65.66944920      50.73553754      17.16400000
Mo      67.21283721      53.63879389      17.16400000
Mo      68.75622521      56.54205025      17.16400000
Mo      70.29961322      59.44530660      17.16400000
Mo      71.84300122      62.34856296      17.16400000
Mo      73.38638923      65.25181932      17.16400000
Mo      74.92977723      68.15507567      17.16400000
Mo      76.47316524      71.05833203      17.16400000
Mo      78.01655324      73.96158838      17.16400000
Mo      79.55994125      76.86484474      17.16400000
Mo      62.78188494      39.23752707      17.16400000
Mo      64.32527295      42.14078343      17.16400000
Mo      65.86866095      45.04403978      17.16400000
Mo      67.41204896      47.94729614      17.16400000
Mo      68.95543696      50.85055249      17.16400000
Mo      70.49882497      53.75380885      17.16400000
Mo      72.04221297      56.65706521      17.16400000
Mo      73.58560098      59.56032156      17.16400000
Mo      75.12898898      62.46357792      17.16400000
Mo      76.67237699      65.36683427      17.16400000
Mo      78.21576499      68.27009063      17.16400000
Mo      79.75915300      71.17334698      17.16400000
Mo      67.61126071      42.25579839      17.16400000
Mo      69.15464871      45.15905474      17.16400000
Mo      70.69803672      48.06231110      17.16400000
Mo      72.24142472      50.96556745      17.16400000
Mo      73.78481273      53.86882381      17.16400000
Mo      75.32820073      56.77208016      17.16400000
Mo      76.87158874      59.67533652      17.16400000
Mo      78.41497674      62.57859287      17.16400000
Mo      79.95836475      65.48184923      17.16400000
Mo      72.44063647      45.27406970      17.16400000
Mo      73.98402448      48.17732605      17.16400000
Mo      75.52741248      51.08058241      17.16400000
Mo      77.07080049      53.98383877      17.16400000
Mo      78.61418849      56.88709512      17.16400000
Mo      80.15757650      59.79035148      17.16400000
Mo      77.27001224      48.29234101      17.16400000
Mo      78.81340024      51.19559737      17.16400000
Mo      80.35678825      54.09885372      17.16400000
Se       0.16500367      89.28181310      18.82800000
Se       1.70839168      92.18506945      18.82800000
Se       3.25177968      95.08832581      18.82800000
Se       0.36421542      83.59031534      18.82800000
Se       1.90760343      86.49357170      18.82800000
Se       3.45099143      89.39682805      18.82800000
Se       4.99437944      92.30008441      18.82800000
Se       6.53776744      95.20334077      18.82800000
Se       8.08115545      98.10659712      18.82800000
Se       0.56342717      77.89881759      18.82800000
Se       2.10681518      80.80207394      18.82800000
Se       3.65020318      83.70533030      18.82800000
Se       5.19359119      86.60858666      18.82800000
Se       6.73697919      89.51184301      18.82800000
Se       8.28036720      92.41509937      18.82800000
Se       9.82375520      95.31835572      18.82800000
Se      11.36714321      98.22161208      18.82800000
Se      12.91053121     101.12486843      18.82800000
Se       0.76263892      72.20731984      18.82800000
Se       2.30602693      75.11057619      18.82800000
Se       3.84941493      78.01383255      18.82800000
Se       5.39280294      80.91708890      18.82800000
Se       6.93619094      83.82034526      18.82800000
Se       8.47957895      86.72360161      18.82800000
Se      10.02296695      89.62685797      18.82800000
Se      11.56635496      92.53011433      18.82800000
Se      13.10974296      95.43337068      18.82800000
Se      14.65313097      98.33662704      18.82800000
Se      16.19651897     101.23988339      18.82800000
Se      17.73990698     104.14313975      18.82800000
Se       0.96185067      66.51582208      18.82800000
Se       2.50523868      69.41907844      18.82800000
Se       4.04862668      72.32233479      18.82800000
Se       5.59201469      75.22559115      18.82800000
Se       7.13540269      78.12884750      18.82800000
Se       8.67879070      81.03210386      18.82800000
Se      10.22217870      83.93536022      18.82800000
Se      11.76556671      86.83861657      18.82800000
Se      13.30895471      89.74187293      18.82800000
Se      14.85234272      92.64512928      18.82800000
Se      16.39573072      95.54838564      18.82800000
Se      17.93911873      98.45164199      18.82800000
Se      19.48250673     101.35489835      18.82800000
Se      21.02589474     104.25815471      18.82800000
Se      22.56928274     107.16141106      18.82800000
Se       1.16106242      60.82432433      18.82800000
Se       2.70445043      63.72758068      18.82800000
Se       4.24783843      66.63083704      18.82800000
Se       5.79122644      69.53409340      18.82800000
Se       7.33461444      72.43734975      18.82800000
Se       8.87800245      75.34060611      18.82800000
Se      10.42139045      78.24386246      18.82800000
Se      11.96477846      81.14711882      18.82800000
Se      13.50816646      84.05037517      18.82800000
Se      15.05155447      86.95363153      18.82800000
Se      16.59494247      89.85688788      18.82800000
Se      18.13833048      92.76014424      18.82800000
Se      19.68171848      95.66340060      18.82800000
Se      21.22510649      98.56665695      18.82800000
Se      22.76849449     101.46991331      18.82800000
Se      24.31188250     104.37316966      18.82800000
Se      25.85527050     107.27642602      18.82800000
Se      27.39865851     110.17968237      18.82800000
Se       1.36027417      55.13282658      18.82800000
Se       2.90366218      58.03608293      18.82800000
Se       4.44705018      60.93933929      18.82800000
Se       5.99043819      63.84259564      18.82800000
Se       7.53382619      66.74585200      18.82800000
Se       9.07721420      69.64910835      18.82800000
Se      10.62060220      72.55236471      18.82800000
Se      12.16399021      75.45562106      18.82800000
Se      13.70737821      78.35887742      18.82800000
Se      15.25076622      81.26213378      18.82800000
Se      16.79415422      84.16539013      18.82800000
Se      18.33754223      87.06864649      18.82800000
Se      19.88093023      89.97190284      18.82800000
Se      21.42431824      92.87515920      18.82800000
Se      22.96770624      95.77841555      18.82800000
Se      24.51109425      98.68167191      18.82800000
Se      26.05448225     101.58492826      18.82800000
Se      27.59787026     104.48818462      18.82800000
Se      29.14125826     107.39144098      18.82800000
Se      30.68464627     110.29469733      18.82800000
Se      32.22803427     113.19795369      18.82800000
Se       1.55948592      49.44132882      18.82800000
Se       3.10287393      52.34458518      18.82800000
Se       4.64626193      55.24784153      18.82800000
Se       6.18964994      58.15109789      18.82800000
Se       7.73303794      61.05435424      18.82800000
Se       9.27642595      63.95761060      18.82800000
Se      10.81981395      66.86086696      18.82800000
Se      12.36320196      69.76412331      18.82800000
Se      13.90658996      72.66737967      18.82800000
Se      15.44997797      75.57063602      18.82800000
Se      16.99336597      78.47389238      18.82800000
Se      18.53675398      81.37714873      18.82800000
Se      20.08014198      84.28040509      18.82800000
Se      21.62352999      87.18366144      18.82800000
Se      23.16691799      90.08691780      18.82800000
Se      24.71030600      92.99017416      18.82800000
Se      26.25369400      95.89343051      18.82800000
Se      27.79708201      98.79668687      18.82800000
Se      29.34047001     101.69994322      18.82800000
Se      30.88385802     104.60319958      18.82800000
Se      32.42724602     107.50645593      18.82800000
Se      33.97063403     110.40971229      18.82800000
Se      35.51402203     113.31296864      18.82800000
Se      37.05741004     116.21622500      18.82800000
Se       1.75869767      43.74983107      18.82800000
Se       3.30208568      46.65308742      18.82800000
Se       4.84547368      49.55634378      18.82800000
Se       6.38886169      52.45960013      18.82800000
Se       7.93224969      55.36285649      18.82800000
Se       9.47563770      58.26611285      18.82800000
Se      11.01902570      61.16936920      18.82800000
Se      12.56241371      64.07262556      18.82800000
Se      14.10580171      66.97588191      18.82800000
Se      15.64918972      69.87913827      18.82800000
Se      17.19257772      72.78239462      18.82800000
Se      18.73596573      75.68565098      18.82800000
Se      20.27935373      78.58890734      18.82800000
Se      21.82274174      81.49216369      18.82800000
Se      23.36612974      84.39542005      18.82800000
Se      24.90951775      87.29867640      18.82800000
Se      26.45290575      90.20193276      18.82800000
Se      27.99629376      93.10518911      18.82800000
Se      29.53968176      96.00844547      18.82800000
Se      31.08306977      98.91170182      18.82800000
Se      32.62645777     101.81495818      18.82800000
Se      34.16984578     104.71821454      18.82800000
Se      35.71323378     107.62147089      18.82800000
Se      37.25662179     110.52472725      18.82800000
Se      38.80000979     113.42798360      18.82800000
Se      40.34339780     116.33123996      18.82800000
Se      41.88678580     119.23449631      18.82800000
Se       1.95790942      38.05833331      18.82800000
Se       3.50129743      40.96158967      18.82800000
Se       5.04468543      43.86484603      18.82800000
Se       6.58807344      46.76810238      18.82800000
Se       8.13146144      49.67135874      18.82800000
Se       9.67484945      52.57461509      18.82800000
Se      11.21823745      55.47787145      18.82800000
Se      12.76162546      58.38112780      18.82800000
Se      14.30501346      61.28438416      18.82800000
Se      15.84840147      64.18764052      18.82800000
Se      17.39178947      67.09089687      18.82800000
Se      18.93517748      69.99415323      18.82800000
Se      20.47856548      72.89740958      18.82800000
Se      22.02195349      75.80066594      18.82800000
Se      23.56534149      78.70392229      18.82800000
Se      25.10872950      81.60717865      18.82800000
Se      26.65211750      84.51043500      18.82800000
Se      28.19550551      87.41369136      18.82800000
Se      29.73889351      90.31694772      18.82800000
Se      31.28228152      93.22020407      18.82800000
Se      32.82566952      96.12346043      18.82800000
Se      34.36905753      99.02671678      18.82800000
Se      35.91244553     101.92997314      18.82800000
Se      37.45583354     104.83322949      18.82800000
Se      38.99922154     107.73648585      18.82800000
Se      40.54260955     110.63974220      18.82800000
Se      42.08599755     113.54299856      18.82800000
Se      43.62938556     116.44625492      18.82800000
Se      45.17277356     119.34951127      18.82800000
Se      46.71616157     122.25276763      18.82800000
Se       2.15712118      32.36683556      18.82800000
Se       3.70050918      35.27009192      18.82800000
Se       5.24389718      38.17334827      18.82800000
Se       6.78728519      41.07660463      18.82800000
Se       8.33067319      43.97986098      18.82800000
Se       9.87406120      46.88311734      18.82800000
Se      11.41744920      49.78637369      18.82800000
Se      12.96083721      52.68963005      18.82800000
Se      14.50422521      55.59288641      18.82800000
Se      16.04761322      58.49614276      18.82800000
Se      17.59100122      61.39939912      18.82800000
Se      19.13438923      64.30265547      18.82800000
Se      20.67777723      67.20591183      18.82800000
Se      22.22116524      70.10916818      18.82800000
Se      23.76455324      73.01242454      18.82800000
Se      25.30794125      75.91568090      18.82800000
Se      26.85132925      78.81893725      18.82800000
Se      28.39471726      81.72219361      18.82800000
Se      29.93810526      84.62544996      18.82800000
Se      31.48149327      87.52870632      18.82800000
Se      33.02488127      90.43196267      18.82800000
Se      34.56826928      93.33521903      18.82800000
Se      36.11165728      96.23847538      18.82800000
Se      37.65504529      99.14173174      18.82800000
Se      39.19843329     102.04498810      18.82800000
Se      40.74182130     104.94824445      18.82800000
Se      42.28520930     107.85150081      18.82800000
Se      43.82859731     110.75475716      18.82800000
Se      45.37198531     113.65801352      18.82800000
Se      46.91537332     116.56126987      18.82800000
Se      48.45876132     119.46452623      18.82800000
Se      50.00214933     122.36778258      18.82800000
Se      51.54553733     125.27103894      18.82800000
Se       2.35633293      26.67533781      18.82800000
Se       3.89972093      29.57859416      18.82800000
Se       5.44310894      32.48185052      18.82800000
Se       6.98649694      35.38510687      18.82800000
Se       8.52988494      38.28836323      18.82800000
Se      10.07327295      41.19161959      18.82800000
Se      11.61666095      44.09487594      18.82800000
Se      13.16004896      46.99813230      18.82800000
Se      14.70343696      49.90138865      18.82800000
Se      16.24682497      52.80464501      18.82800000
Se      17.79021297      55.70790136      18.82800000
Se      19.33360098      58.61115772      18.82800000
Se      20.87698898      61.51441407      18.82800000
Se      22.42037699      64.41767043      18.82800000
Se      23.96376499      67.32092679      18.82800000
Se      25.50715300      70.22418314      18.82800000
Se      27.05054100      73.12743950      18.82800000
Se      28.59392901      76.03069585      18.82800000
Se      30.13731701      78.93395221      18.82800000
Se      31.68070502      81.83720856      18.82800000
Se      33.22409302      84.74046492      18.82800000
Se      34.76748103      87.64372128      18.82800000
Se      36.31086903      90.54697763      18.82800000
Se      37.85425704      93.45023399      18.82800000
Se      39.39764504      96.35349034      18.82800000
Se      40.94103305      99.25674670      18.82800000
Se      42.48442105     102.16000305      18.82800000
Se      44.02780906     105.06325941      18.82800000
Se      45.57119706     107.96651576      18.82800000
Se      47.11458507     110.86977212      18.82800000
Se      48.65797307     113.77302848      18.82800000
Se      50.20136108     116.67628483      18.82800000
Se      51.74474908     119.57954119      18.82800000
Se      53.28813709     122.48279754      18.82800000
Se      54.83152509     125.38605390      18.82800000
Se      56.37491310     128.28931025      18.82800000
Se       2.55554468      20.98384005      18.82800000
Se       4.09893268      23.88709641      18.82800000
Se       5.64232069      26.79035277      18.82800000
Se       7.18570869      29.69360912      18.82800000
Se       8.72909670      32.59686548      18.82800000
Se      10.27248470      35.50012183      18.82800000
Se      11.81587271      38.40337819      18.82800000
Se      13.35926071      41.30663454      18.82800000
Se      14.90264871      44.20989090      18.82800000
Se      16.44603672      47.11314725      18.82800000
Se      17.98942472      50.01640361      18.82800000
Se      19.53281273      52.91965997      18.82800000
Se      21.07620073      55.82291632      18.82800000
Se      22.61958874      58.72617268      18.82800000
Se      24.16297674      61.62942903      18.82800000
Se      25.70636475      64.53268539      18.82800000
Se      27.24975275      67.43594174      18.82800000
Se      28.79314076      70.33919810      18.82800000
Se      30.33652876      73.24245445      18.82800000
Se      31.87991677      76.14571081      18.82800000
Se      33.42330477      79.04896717      18.82800000
Se      34.96669278      81.95222352      18.82800000
Se      36.51008078      84.85547988      18.82800000
Se      38.05346879      87.75873623      18.82800000
Se      39.59685679      90.66199259      18.82800000
Se      41.14024480      93.56524894      18.82800000
Se      42.68363280      96.46850530      18.82800000
Se      44.22702081      99.37176166      18.82800000
Se      45.77040881     102.27501801      18.82800000
Se      47.31379682     105.17827437      18.82800000
Se      48.85718482     108.08153072      18.82800000
Se      50.40057283     110.98478708      18.82800000
Se      51.94396083     113.88804343      18.82800000
Se      53.48734884     116.79129979      18.82800000
Se      55.03073684     119.69455614      18.82800000
Se      56.57412485     122.59781250      18.82800000
Se      58.11751285     125.50106886      18.82800000
Se      59.66090086     128.40432521      18.82800000
Se      61.20428886     131.30758157      18.82800000
Se       2.75475643      15.29234230      18.82800000
Se       4.29814443      18.19559866      18.82800000
Se       5.84153244      21.09885501      18.82800000
Se       7.38492044      24.00211137      18.82800000
Se       8.92830845      26.90536772      18.82800000
Se      10.47169645      29.80862408      18.82800000
Se      12.01508446      32.71188043      18.82800000
Se      13.55847246      35.61513679      18.82800000
Se      15.10186047      38.51839315      18.82800000
Se      16.64524847      41.42164950      18.82800000
Se      18.18863647      44.32490586      18.82800000
Se      19.73202448      47.22816221      18.82800000
Se      21.27541248      50.13141857      18.82800000
Se      22.81880049      53.03467492      18.82800000
Se      24.36218849      55.93793128      18.82800000
Se      25.90557650      58.84118763      18.82800000
Se      27.44896450      61.74444399      18.82800000
Se      28.99235251      64.64770035      18.82800000
Se      30.53574051      67.55095670      18.82800000
Se      32.07912852      70.45421306      18.82800000
Se      33.62251652      73.35746941      18.82800000
Se      35.16590453      76.26072577      18.82800000
Se      36.70929253      79.16398212      18.82800000
Se      38.25268054      82.06723848      18.82800000
Se      39.79606854      84.97049483      18.82800000
Se      41.33945655      87.87375119      18.82800000
Se      42.88284455      90.77700755      18.82800000
Se      44.42623256      93.68026390      18.82800000
Se      45.96962056      96.58352026      18.82800000
Se      47.51300857      99.48677661      18.82800000
Se      49.05639657     102.39003297      18.82800000
Se      50.59978458     105.29328932      18.82800000
Se      52.14317258     108.19654568      18.82800000
Se      53.68656059     111.09980204      18.82800000
Se      55.22994859     114.00305839      18.82800000
Se      56.77333660     116.90631475      18.82800000
Se      58.31672460     119.80957110      18.82800000
Se      59.86011261     122.71282746      18.82800000
Se      61.40350061     125.61608381      18.82800000
Se      62.94688862     128.51934017      18.82800000
Se      64.49027662     131.42259652      18.82800000
Se      66.03366463     134.32585288      18.82800000
Se       2.95396818       9.60084455      18.82800000
Se       4.49735618      12.50410090      18.82800000
Se       6.04074419      15.40735726      18.82800000
Se       7.58413219      18.31061361      18.82800000
Se       9.12752020      21.21386997      18.82800000
Se      10.67090820      24.11712632      18.82800000
Se      12.21429621      27.02038268      18.82800000
Se      13.75768421      29.92363904      18.82800000
Se      15.30107222      32.82689539      18.82800000
Se      16.84446022      35.73015175      18.82800000
Se      18.38784823      38.63340810      18.82800000
Se      19.93123623      41.53666446      18.82800000
Se      21.47462424      44.43992081      18.82800000
Se      23.01801224      47.34317717      18.82800000
Se      24.56140024      50.24643353      18.82800000
Se      26.10478825      53.14968988      18.82800000
Se      27.64817625      56.05294624      18.82800000
Se      29.19156426      58.95620259      18.82800000
Se      30.73495226      61.85945895      18.82800000
Se      32.27834027      64.76271530      18.82800000
Se      33.82172827      67.66597166      18.82800000
Se      35.36511628      70.56922801      18.82800000
Se      36.90850428      73.47248437      18.82800000
Se      38.45189229      76.37574073      18.82800000
Se      39.99528029      79.27899708      18.82800000
Se      41.53866830      82.18225344      18.82800000
Se      43.08205630      85.08550979      18.82800000
Se      44.62544431      87.98876615      18.82800000
Se      46.16883231      90.89202250      18.82800000
Se      47.71222032      93.79527886      18.82800000
Se      49.25560832      96.69853521      18.82800000
Se      50.79899633      99.60179157      18.82800000
Se      52.34238433     102.50504793      18.82800000
Se      53.88577234     105.40830428      18.82800000
Se      55.42916034     108.31156064      18.82800000
Se      56.97254835     111.21481699      18.82800000
Se      58.51593635     114.11807335      18.82800000
Se      60.05932436     117.02132970      18.82800000
Se      61.60271236     119.92458606      18.82800000
Se      63.14610037     122.82784242      18.82800000
Se      64.68948837     125.73109877      18.82800000
Se      66.23287638     128.63435513      18.82800000
Se      67.77626438     131.53761148      18.82800000
Se      69.31965239     134.44086784      18.82800000
Se      70.86304039     137.34412419      18.82800000
Se       1.60979192       1.00609044      18.82800000
Se       3.15317993       3.90934679      18.82800000
Se       4.69656793       6.81260315      18.82800000
Se       6.23995594       9.71585950      18.82800000
Se       7.78334394      12.61911586      18.82800000
Se       9.32673195      15.52237222      18.82800000
Se      10.87011995      18.42562857      18.82800000
Se      12.41350796      21.32888493      18.82800000
Se      13.95689596      24.23214128      18.82800000
Se      15.50028397      27.13539764      18.82800000
Se      17.04367197      30.03865399      18.82800000
Se      18.58705998      32.94191035      18.82800000
Se      20.13044798      35.84516670      18.82800000
Se      21.67383599      38.74842306      18.82800000
Se      23.21722399      41.65167942      18.82800000
Se      24.76061200      44.55493577      18.82800000
Se      26.30400000      47.45819213      18.82800000
Se      27.84738800      50.36144848      18.82800000
Se      29.39077601      53.26470484      18.82800000
Se      30.93416401      56.16796119      18.82800000
Se      32.47755202      59.07121755      18.82800000
Se      34.02094002      61.97447391      18.82800000
Se      35.56432803      64.87773026      18.82800000
Se      37.10771603      67.78098662      18.82800000
Se      38.65110404      70.68424297      18.82800000
Se      40.19449204      73.58749933      18.82800000
Se      41.73788005      76.49075568      18.82800000
Se      43.28126805      79.39401204      18.82800000
Se      44.82465606      82.29726839      18.82800000
Se      46.36804406      85.20052475      18.82800000
Se      47.91143207      88.10378111      18.82800000
Se      49.45482007      91.00703746      18.82800000
Se      50.99820808      93.91029382      18.82800000
Se      52.54159608      96.81355017      18.82800000
Se      54.08498409      99.71680653      18.82800000
Se      55.62837209     102.62006288      18.82800000
Se      57.17176010     105.52331924      18.82800000
Se      58.71514810     108.42657560      18.82800000
Se      60.25853611     111.32983195      18.82800000
Se      61.80192411     114.23308831      18.82800000
Se      63.34531212     117.13634466      18.82800000
Se      64.88870012     120.03960102      18.82800000
Se      66.43208813     122.94285737      18.82800000
Se      67.97547613     125.84611373      18.82800000
Se      69.51886414     128.74937008      18.82800000
Se      71.06225214     131.65262644      18.82800000
Se      72.60564015     134.55588280      18.82800000
Se      74.14902815     137.45913915      18.82800000
Se      75.69241616     140.36239551      18.82800000
Se       6.43916769       4.02436175      18.82800000
Se       7.98255569       6.92761811      18.82800000
Se       9.52594370       9.83087446      18.82800000
Se      11.06933170      12.73413082      18.82800000
Se      12.61271971      15.63738717      18.82800000
Se      14.15610771      18.54064353      18.82800000
Se      15.69949572      21.44389988      18.82800000
Se      17.24288372      24.34715624      18.82800000
Se      18.78627173      27.25041260      18.82800000
Se      20.32965973      30.15366895      18.82800000
Se      21.87304774      33.05692531      18.82800000
Se      23.41643574      35.96018166      18.82800000
Se      24.95982375      38.86343802      18.82800000
Se      26.50321175      41.76669437      18.82800000
Se      28.04659976      44.66995073      18.82800000
Se      29.58998776      47.57320709      18.82800000
Se      31.13337576      50.47646344      18.82800000
Se      32.67676377      53.37971980      18.82800000
Se      34.22015177      56.28297615      18.82800000
Se      35.76353978      59.18623251      18.82800000
Se      37.30692778      62.08948886      18.82800000
Se      38.85031579      64.99274522      18.82800000
Se      40.39370379      67.89600157      18.82800000
Se      41.93709180      70.79925793      18.82800000
Se      43.48047980      73.70251429      18.82800000
Se      45.02386781      76.60577064      18.82800000
Se      46.56725581      79.50902700      18.82800000
Se      48.11064382      82.41228335      18.82800000
Se      49.65403182      85.31553971      18.82800000
Se      51.19741983      88.21879606      18.82800000
Se      52.74080783      91.12205242      18.82800000
Se      54.28419584      94.02530877      18.82800000
Se      55.82758384      96.92856513      18.82800000
Se      57.37097185      99.83182149      18.82800000
Se      58.91435985     102.73507784      18.82800000
Se      60.45774786     105.63833420      18.82800000
Se      62.00113586     108.54159055      18.82800000
Se      63.54452387     111.44484691      18.82800000
Se      65.08791187     114.34810326      18.82800000
Se      66.63129988     117.25135962      18.82800000
Se      68.17468788     120.15461598      18.82800000
Se      69.71807589     123.05787233      18.82800000
Se      71.26146389     125.96112869      18.82800000
Se      72.80485190     128.86438504      18.82800000
Se      74.34823990     131.76764140      18.82800000
Se      75.89162791     134.67089775      18.82800000
Se      77.43501591     137.57415411      18.82800000
Se      -1.57759608      92.07005449      18.82800000
Se      11.26854345       7.04263306      18.82800000
Se      12.81193146       9.94588942      18.82800000
Se      14.35531946      12.84914578      18.82800000
Se      15.89870747      15.75240213      18.82800000
Se      17.44209547      18.65565849      18.82800000
Se      18.98548348      21.55891484      18.82800000
Se      20.52887148      24.46217120      18.82800000
Se      22.07225949      27.36542755      18.82800000
Se      23.61564749      30.26868391      18.82800000
Se      25.15903550      33.17194026      18.82800000
Se      26.70242350      36.07519662      18.82800000
Se      28.24581151      38.97845298      18.82800000
Se      29.78919951      41.88170933      18.82800000
Se      31.33258752      44.78496569      18.82800000
Se      32.87597552      47.68822204      18.82800000
Se      34.41936353      50.59147840      18.82800000
Se      35.96275153      53.49473475      18.82800000
Se      37.50613953      56.39799111      18.82800000
Se      39.04952754      59.30124747      18.82800000
Se      40.59291554      62.20450382      18.82800000
Se      42.13630355      65.10776018      18.82800000
Se      43.67969155      68.01101653      18.82800000
Se      45.22307956      70.91427289      18.82800000
Se      46.76646756      73.81752924      18.82800000
Se      48.30985557      76.72078560      18.82800000
Se      49.85324357      79.62404195      18.82800000
Se      51.39663158      82.52729831      18.82800000
Se      52.94001958      85.43055467      18.82800000
Se      54.48340759      88.33381102      18.82800000
Se      56.02679559      91.23706738      18.82800000
Se      57.57018360      94.14032373      18.82800000
Se      59.11357160      97.04358009      18.82800000
Se      60.65695961      99.94683644      18.82800000
Se      62.20034761     102.85009280      18.82800000
Se      63.74373562     105.75334915      18.82800000
Se      65.28712362     108.65660551      18.82800000
Se      66.83051163     111.55986187      18.82800000
Se      68.37389963     114.46311822      18.82800000
Se      69.91728764     117.36637458      18.82800000
Se      71.46067564     120.26963093      18.82800000
Se      73.00406365     123.17288729      18.82800000
Se      74.54745165     126.07614364      18.82800000
Se      76.09083966     128.97940000      18.82800000
Se      77.63422766     131.88265636      18.82800000
Se      -1.37838433      86.37855674      18.82800000
Se      16.09791922      10.06090438      18.82800000
Se      17.64130722      12.96416073      18.82800000
Se      19.18469523      15.86741709      18.82800000
Se      20.72808323      18.77067344      18.82800000
Se      22.27147124      21.67392980      18.82800000
Se      23.81485924      24.57718616      18.82800000
Se      25.35824725      27.48044251      18.82800000
Se      26.90163525      30.38369887      18.82800000
Se      28.44502326      33.28695522      18.82800000
Se      29.98841126      36.19021158      18.82800000
Se      31.53179927      39.09346793      18.82800000
Se      33.07518727      41.99672429      18.82800000
Se      34.61857528      44.89998064      18.82800000
Se      36.16196328      47.80323700      18.82800000
Se      37.70535129      50.70649336      18.82800000
Se      39.24873929      53.60974971      18.82800000
Se      40.79212729      56.51300607      18.82800000
Se      42.33551530      59.41626242      18.82800000
Se      43.87890330      62.31951878      18.82800000
Se      45.42229131      65.22277513      18.82800000
Se      46.96567931      68.12603149      18.82800000
Se      48.50906732      71.02928785      18.82800000
Se      50.05245532      73.93254420      18.82800000
Se      51.59584333      76.83580056      18.82800000
Se      53.13923133      79.73905691      18.82800000
Se      54.68261934      82.64231327      18.82800000
Se      56.22600734      85.54556962      18.82800000
Se      57.76939535      88.44882598      18.82800000
Se      59.31278335      91.35208233      18.82800000
Se      60.85617136      94.25533869      18.82800000
Se      62.39955936      97.15859505      18.82800000
Se      63.94294737     100.06185140      18.82800000
Se      65.48633537     102.96510776      18.82800000
Se      67.02972338     105.86836411      18.82800000
Se      68.57311138     108.77162047      18.82800000
Se      70.11649939     111.67487682      18.82800000
Se      71.65988739     114.57813318      18.82800000
Se      73.20327540     117.48138953      18.82800000
Se      74.74666340     120.38464589      18.82800000
Se      76.29005141     123.28790225      18.82800000
Se      77.83343941     126.19115860      18.82800000
Se      -1.17917258      80.68705899      18.82800000
Se      20.92729498      13.07917569      18.82800000
Se      22.47068299      15.98243205      18.82800000
Se      24.01407099      18.88568840      18.82800000
Se      25.55745900      21.78894476      18.82800000
Se      27.10084700      24.69220111      18.82800000
Se      28.64423501      27.59545747      18.82800000
Se      30.18762301      30.49871382      18.82800000
Se      31.73101102      33.40197018      18.82800000
Se      33.27439902      36.30522654      18.82800000
Se      34.81778703      39.20848289      18.82800000
Se      36.36117503      42.11173925      18.82800000
Se      37.90456304      45.01499560      18.82800000
Se      39.44795104      47.91825196      18.82800000
Se      40.99133905      50.82150831      18.82800000
Se      42.53472705      53.72476467      18.82800000
Se      44.07811506      56.62802102      18.82800000
Se      45.62150306      59.53127738      18.82800000
Se      47.16489106      62.43453374      18.82800000
Se      48.70827907      65.33779009      18.82800000
Se      50.25166707      68.24104645      18.82800000
Se      51.79505508      71.14430280      18.82800000
Se      53.33844308      74.04755916      18.82800000
Se      54.88183109      76.95081551      18.82800000
Se      56.42521909      79.85407187      18.82800000
Se      57.96860710      82.75732823      18.82800000
Se      59.51199510      85.66058458      18.82800000
Se      61.05538311      88.56384094      18.82800000
Se      62.59877111      91.46709729      18.82800000
Se      64.14215912      94.37035365      18.82800000
Se      65.68554712      97.27361000      18.82800000
Se      67.22893513     100.17686636      18.82800000
Se      68.77232313     103.08012271      18.82800000
Se      70.31571114     105.98337907      18.82800000
Se      71.85909914     108.88663543      18.82800000
Se      73.40248715     111.78989178      18.82800000
Se      74.94587515     114.69314814      18.82800000
Se      76.48926316     117.59640449      18.82800000
Se      78.03265116     120.49966085      18.82800000
Se      -0.97996083      74.99556123      18.82800000
Se      25.75667075      16.09744700      18.82800000
Se      27.30005875      19.00070336      18.82800000
Se      28.84344676      21.90395972      18.82800000
Se      30.38683476      24.80721607      18.82800000
Se      31.93022277      27.71047243      18.82800000
Se      33.47361077      30.61372878      18.82800000
Se      35.01699878      33.51698514      18.82800000
Se      36.56038678      36.42024149      18.82800000
Se      38.10377479      39.32349785      18.82800000
Se      39.64716279      42.22675420      18.82800000
Se      41.19055080      45.13001056      18.82800000
Se      42.73393880      48.03326692      18.82800000
Se      44.27732681      50.93652327      18.82800000
Se      45.82071481      53.83977963      18.82800000
Se      47.36410282      56.74303598      18.82800000
Se      48.90749082      59.64629234      18.82800000
Se      50.45087882      62.54954869      18.82800000
Se      51.99426683      65.45280505      18.82800000
Se      53.53765483      68.35606140      18.82800000
Se      55.08104284      71.25931776      18.82800000
Se      56.62443084      74.16257412      18.82800000
Se      58.16781885      77.06583047      18.82800000
Se      59.71120685      79.96908683      18.82800000
Se      61.25459486      82.87234318      18.82800000
Se      62.79798286      85.77559954      18.82800000
Se      64.34137087      88.67885589      18.82800000
Se      65.88475887      91.58211225      18.82800000
Se      67.42814688      94.48536861      18.82800000
Se      68.97153488      97.38862496      18.82800000
Se      70.51492289     100.29188132      18.82800000
Se      72.05831089     103.19513767      18.82800000
Se      73.60169890     106.09839403      18.82800000
Se      75.14508690     109.00165038      18.82800000
Se      76.68847491     111.90490674      18.82800000
Se      78.23186291     114.80816309      18.82800000
Se      -0.78074908      69.30406348      18.82800000
Se      30.58604651      19.11571832      18.82800000
Se      32.12943452      22.01897467      18.82800000
Se      33.67282252      24.92223103      18.82800000
Se      35.21621053      27.82548738      18.82800000
Se      36.75959853      30.72874374      18.82800000
Se      38.30298654      33.63200010      18.82800000
Se      39.84637454      36.53525645      18.82800000
Se      41.38976255      39.43851281      18.82800000
Se      42.93315055      42.34176916      18.82800000
Se      44.47653856      45.24502552      18.82800000
Se      46.01992656      48.14828187      18.82800000
Se      47.56331457      51.05153823      18.82800000
Se      49.10670257      53.95479458      18.82800000
Se      50.65009058      56.85805094      18.82800000
Se      52.19347858      59.76130730      18.82800000
Se      53.73686659      62.66456365      18.82800000
Se      55.28025459      65.56782001      18.82800000
Se      56.82364259      68.47107636      18.82800000
Se      58.36703060      71.37433272      18.82800000
Se      59.91041860      74.27758907      18.82800000
Se      61.45380661      77.18084543      18.82800000
Se      62.99719461      80.08410178      18.82800000
Se      64.54058262      82.98735814      18.82800000
Se      66.08397062      85.89061450      18.82800000
Se      67.62735863      88.79387085      18.82800000
Se      69.17074663      91.69712721      18.82800000
Se      70.71413464      94.60038356      18.82800000
Se      72.25752264      97.50363992      18.82800000
Se      73.80091065     100.40689627      18.82800000
Se      75.34429865     103.31015263      18.82800000
Se      76.88768666     106.21340899      18.82800000
Se      78.43107466     109.11666534      18.82800000
Se      -0.58153733      63.61256573      18.82800000
Se      35.41542228      22.13398963      18.82800000
Se      36.95881028      25.03724599      18.82800000
Se      38.50219829      27.94050234      18.82800000
Se      40.04558629      30.84375870      18.82800000
Se      41.58897430      33.74701505      18.82800000
Se      43.13236230      36.65027141      18.82800000
Se      44.67575031      39.55352776      18.82800000
Se      46.21913831      42.45678412      18.82800000
Se      47.76252632      45.36004048      18.82800000
Se      49.30591432      48.26329683      18.82800000
Se      50.84930233      51.16655319      18.82800000
Se      52.39269033      54.06980954      18.82800000
Se      53.93607834      56.97306590      18.82800000
Se      55.47946634      59.87632225      18.82800000
Se      57.02285435      62.77957861      18.82800000
Se      58.56624235      65.68283496      18.82800000
Se      60.10963035      68.58609132      18.82800000
Se      61.65301836      71.48934768      18.82800000
Se      63.19640636      74.39260403      18.82800000
Se      64.73979437      77.29586039      18.82800000
Se      66.28318237      80.19911674      18.82800000
Se      67.82657038      83.10237310      18.82800000
Se      69.36995838      86.00562945      18.82800000
Se      70.91334639      88.90888581      18.82800000
Se      72.45673439      91.81214217      18.82800000
Se      74.00012240      94.71539852      18.82800000
Se      75.54351040      97.61865488      18.82800000
Se      77.08689841     100.52191123      18.82800000
Se      78.63028641     103.42516759      18.82800000
Se      -0.38232558      57.92106797      18.82800000
Se      40.24479804      25.15226094      18.82800000
Se      41.78818605      28.05551730      18.82800000
Se      43.33157405      30.95877366      18.82800000
Se      44.87496206      33.86203001      18.82800000
Se      46.41835006      36.76528637      18.82800000
Se      47.96173807      39.66854272      18.82800000
Se      49.50512607      42.57179908      18.82800000
Se      51.04851408      45.47505543      18.82800000
Se      52.59190208      48.37831179      18.82800000
Se      54.13529009      51.28156814      18.82800000
Se      55.67867809      54.18482450      18.82800000
Se      57.22206610      57.08808086      18.82800000
Se      58.76545410      59.99133721      18.82800000
Se      60.30884211      62.89459357      18.82800000
Se      61.85223011      65.79784992      18.82800000
Se      63.39561812      68.70110628      18.82800000
Se      64.93900612      71.60436263      18.82800000
Se      66.48239412      74.50761899      18.82800000
Se      68.02578213      77.41087534      18.82800000
Se      69.56917013      80.31413170      18.82800000
Se      71.11255814      83.21738806      18.82800000
Se      72.65594614      86.12064441      18.82800000
Se      74.19933415      89.02390077      18.82800000
Se      75.74272215      91.92715712      18.82800000
Se      77.28611016      94.83041348      18.82800000
Se      78.82949816      97.73366983      18.82800000
Se      -0.18311383      52.22957022      18.82800000
Se      45.07417381      28.17053226      18.82800000
Se      46.61756181      31.07378861      18.82800000
Se      48.16094982      33.97704497      18.82800000
Se      49.70433782      36.88030132      18.82800000
Se      51.24772583      39.78355768      18.82800000
Se      52.79111383      42.68681404      18.82800000
Se      54.33450184      45.59007039      18.82800000
Se      55.87788984      48.49332675      18.82800000
Se      57.42127785      51.39658310      18.82800000
Se      58.96466585      54.29983946      18.82800000
Se      60.50805386      57.20309581      18.82800000
Se      62.05144186      60.10635217      18.82800000
Se      63.59482987      63.00960852      18.82800000
Se      65.13821787      65.91286488      18.82800000
Se      66.68160588      68.81612124      18.82800000
Se      68.22499388      71.71937759      18.82800000
Se      69.76838188      74.62263395      18.82800000
Se      71.31176989      77.52589030      18.82800000
Se      72.85515789      80.42914666      18.82800000
Se      74.39854590      83.33240301      18.82800000
Se      75.94193390      86.23565937      18.82800000
Se      77.48532191      89.13891572      18.82800000
Se      79.02870991      92.04217208      18.82800000
Se       0.01609792      46.53807247      18.82800000
Se      49.90354957      31.18880357      18.82800000
Se      51.44693758      34.09205993      18.82800000
Se      52.99032558      36.99531628      18.82800000
Se      54.53371359      39.89857264      18.82800000
Se      56.07710159      42.80182899      18.82800000
Se      57.62048960      45.70508535      18.82800000
Se      59.16387760      48.60834170      18.82800000
Se      60.70726561      51.51159806      18.82800000
Se      62.25065361      54.41485442      18.82800000
Se      63.79404162      57.31811077      18.82800000
Se      65.33742962      60.22136713      18.82800000
Se      66.88081763      63.12462348      18.82800000
Se      68.42420563      66.02787984      18.82800000
Se      69.96759364      68.93113619      18.82800000
Se      71.51098164      71.83439255      18.82800000
Se      73.05436965      74.73764890      18.82800000
Se      74.59775765      77.64090526      18.82800000
Se      76.14114565      80.54416162      18.82800000
Se      77.68453366      83.44741797      18.82800000
Se      79.22792166      86.35067433      18.82800000
Se       0.21530967      40.84657471      18.82800000
Se      54.73292534      34.20707488      18.82800000
Se      56.27631334      37.11033124      18.82800000
Se      57.81970135      40.01358759      18.82800000
Se      59.36308935      42.91684395      18.82800000
Se      60.90647736      45.82010031      18.82800000
Se      62.44986536      48.72335666      18.82800000
Se      63.99325337      51.62661302      18.82800000
Se      65.53664137      54.52986937      18.82800000
Se      67.08002938      57.43312573      18.82800000
Se      68.62341738      60.33638208      18.82800000
Se      70.16680539      63.23963844      18.82800000
Se      71.71019339      66.14289480      18.82800000
Se      73.25358140      69.04615115      18.82800000
Se      74.79696940      71.94940751      18.82800000
Se      76.34035741      74.85266386      18.82800000
Se      77.88374541      77.75592022      18.82800000
Se      79.42713341      80.65917657      18.82800000
Se       0.41452142      35.15507696      18.82800000
Se      59.56230110      37.22534620      18.82800000
Se      61.10568911      40.12860255      18.82800000
Se      62.64907711      43.03185891      18.82800000
Se      64.19246512      45.93511526      18.82800000
Se      65.73585312      48.83837162      18.82800000
Se      67.27924113      51.74162797      18.82800000
Se      68.82262913      54.64488433      18.82800000
Se      70.36601714      57.54814069      18.82800000
Se      71.90940514      60.45139704      18.82800000
Se      73.45279315      63.35465340      18.82800000
Se      74.99618115      66.25790975      18.82800000
Se      76.53956916      69.16116611      18.82800000
Se      78.08295716      72.06442246      18.82800000
Se      79.62634517      74.96767882      18.82800000
Se       0.61373317      29.46357921      18.82800000
Se      64.39167687      40.24361751      18.82800000
Se      65.93506487      43.14687387      18.82800000
Se      67.47845288      46.05013022      18.82800000
Se      69.02184088      48.95338658      18.82800000
Se      70.56522889      51.85664293      18.82800000
Se      72.10861689      54.75989929      18.82800000
Se      73.65200490      57.66315564      18.82800000
Se      75.19539290      60.56641200      18.82800000
Se      76.73878091      63.46966836      18.82800000
Se      78.28216891      66.37292471      18.82800000
Se      79.82555692      69.27618107      18.82800000
Se       0.81294492      23.77208145      18.82800000
Se      69.22105263      43.26188882      18.82800000
Se      70.76444064      46.16514518      18.82800000
Se      72.30782864      49.06840153      18.82800000
Se      73.85121665      51.97165789      18.82800000
Se      75.39460465      54.87491425      18.82800000
Se      76.93799266      57.77817060      18.82800000
Se      78.48138066      60.68142696      18.82800000
Se      80.02476867      63.58468331      18.82800000
Se       1.01215667      18.08058370      18.82800000
Se      74.05042840      46.28016014      18.82800000
Se      75.59381640      49.18341649      18.82800000
Se      77.13720441      52.08667285      18.82800000
Se      78.68059241      54.98992920      18.82800000
Se      80.22398042      57.89318556      18.82800000
Se       1.21136842      12.38908594      18.82800000
Se      78.87980416      49.29843145      18.82800000
Se      80.42319217      52.20168781      18.82800000
Se       1.41058017       6.69758819      18.82800000
Se       0.16500367      89.28181310      15.50000000
Se       1.70839168      92.18506945      15.50000000
Se       3.25177968      95.08832581      15.50000000
Se       0.36421542      83.59031534      15.50000000
Se       1.90760343      86.49357170      15.50000000
Se       3.45099143      89.39682805      15.50000000
Se       4.99437944      92.30008441      15.50000000
Se       6.53776744      95.20334077      15.50000000
Se       8.08115545      98.10659712      15.50000000
Se       0.56342717      77.89881759      15.50000000
Se       2.10681518      80.80207394      15.50000000
Se       3.65020318      83.70533030      15.50000000
Se       5.19359119      86.60858666      15.50000000
Se       6.73697919      89.51184301      15.50000000
Se       8.28036720      92.41509937      15.50000000
Se       9.82375520      95.31835572      15.50000000
Se      11.36714321      98.22161208      15.50000000
Se      12.91053121     101.12486843      15.50000000
Se       0.76263892      72.20731984      15.50000000
Se       2.30602693      75.11057619      15.50000000
Se       3.84941493      78.01383255      15.50000000
Se       5.39280294      80.91708890      15.50000000
Se       6.93619094      83.82034526      15.50000000
Se       8.47957895      86.72360161      15.50000000
Se      10.02296695      89.62685797      15.50000000
Se      11.56635496      92.53011433      15.50000000
Se      13.10974296      95.43337068      15.50000000
Se      14.65313097      98.33662704      15.50000000
Se      16.19651897     101.23988339      15.50000000
Se      17.73990698     104.14313975      15.50000000
Se       0.96185067      66.51582208      15.50000000
Se       2.50523868      69.41907844      15.50000000
Se       4.04862668      72.32233479      15.50000000
Se       5.59201469      75.22559115      15.50000000
Se       7.13540269      78.12884750      15.50000000
Se       8.67879070      81.03210386      15.50000000
Se      10.22217870      83.93536022      15.50000000
Se      11.76556671      86.83861657      15.50000000
Se      13.30895471      89.74187293      15.50000000
Se      14.85234272      92.64512928      15.50000000
Se      16.39573072      95.54838564      15.50000000
Se      17.93911873      98.45164199      15.50000000
Se      19.48250673     101.35489835      15.50000000
Se      21.02589474     104.25815471      15.50000000
Se      22.56928274     107.16141106      15.50000000
Se       1.16106242      60.82432433      15.50000000
Se       2.70445043      63.72758068      15.50000000
Se       4.24783843      66.63083704      15.50000000
Se       5.79122644      69.53409340      15.50000000
Se       7.33461444      72.43734975      15.50000000
Se       8.87800245      75.34060611      15.50000000
Se      10.42139045      78.24386246      15.50000000
Se      11.96477846      81.14711882      15.50000000
Se      13.50816646      84.05037517      15.50000000
Se      15.05155447      86.95363153      15.50000000
Se      16.59494247      89.85688788      15.50000000
Se      18.13833048      92.76014424      15.50000000
Se      19.68171848      95.66340060      15.50000000
Se      21.22510649      98.56665695      15.50000000
Se      22.76849449     101.46991331      15.50000000
Se      24.31188250     104.37316966      15.50000000
Se      25.85527050     107.27642602      15.50000000
Se      27.39865851     110.17968237      15.50000000
Se       1.36027417      55.13282658      15.50000000
Se       2.90366218      58.03608293      15.50000000
Se       4.44705018      60.93933929      15.50000000
Se       5.99043819      63.84259564      15.50000000
Se       7.53382619      66.74585200      15.50000000
Se       9.07721420      69.64910835      15.50000000
Se      10.62060220      72.55236471      15.50000000
Se      12.16399021      75.45562106      15.50000000
Se      13.70737821      78.35887742      15.50000000
Se      15.25076622      81.26213378      15.50000000
Se      16.79415422      84.16539013      15.50000000
Se      18.33754223      87.06864649      15.50000000
Se      19.88093023      89.97190284      15.50000000
Se      21.42431824      92.87515920      15.50000000
Se      22.96770624      95.77841555      15.50000000
Se      24.51109425      98.68167191      15.50000000
Se      26.05448225     101.58492826      15.50000000
Se      27.59787026     104.48818462      15.50000000
Se      29.14125826     107.39144098      15.50000000
Se      30.68464627     110.29469733      15.50000000
Se      32.22803427     113.19795369      15.50000000
Se       1.55948592      49.44132882      15.50000000
Se       3.10287393      52.34458518      15.50000000
Se       4.64626193      55.24784153      15.50000000
Se       6.18964994      58.15109789      15.50000000
Se       7.73303794      61.05435424      15.50000000
Se       9.27642595      63.95761060      15.50000000
Se      10.81981395      66.86086696      15.50000000
Se      12.36320196      69.76412331      15.50000000
Se      13.90658996      72.66737967      15.50000000
Se      15.44997797      75.57063602      15.50000000
Se      16.99336597      78.47389238      15.50000000
Se      18.53675398      81.37714873      15.50000000
Se      20.08014198      84.28040509      15.50000000
Se      21.62352999      87.18366144      15.50000000
Se      23.16691799      90.08691780      15.50000000
Se      24.71030600      92.99017416      15.50000000
Se      26.25369400      95.89343051      15.50000000
Se      27.79708201      98.79668687      15.50000000
Se      29.34047001     101.69994322      15.50000000
Se      30.88385802     104.60319958      15.50000000
Se      32.42724602     107.50645593      15.50000000
Se      33.97063403     110.40971229      15.50000000
Se      35.51402203     113.31296864      15.50000000
Se      37.05741004     116.21622500      15.50000000
Se       1.75869767      43.74983107      15.50000000
Se       3.30208568      46.65308742      15.50000000
Se       4.84547368      49.55634378      15.50000000
Se       6.38886169      52.45960013      15.50000000
Se       7.93224969      55.36285649      15.50000000
Se       9.47563770      58.26611285      15.50000000
Se      11.01902570      61.16936920      15.50000000
Se      12.56241371      64.07262556      15.50000000
Se      14.10580171      66.97588191      15.50000000
Se      15.64918972      69.87913827      15.50000000
Se      17.19257772      72.78239462      15.50000000
Se      18.73596573      75.68565098      15.50000000
Se      20.27935373      78.58890734      15.50000000
Se      21.82274174      81.49216369      15.50000000
Se      23.36612974      84.39542005      15.50000000
Se      24.90951775      87.29867640      15.50000000
Se      26.45290575      90.20193276      15.50000000
Se      27.99629376      93.10518911      15.50000000
Se      29.53968176      96.00844547      15.50000000
Se      31.08306977      98.91170182      15.50000000
Se      32.62645777     101.81495818      15.50000000
Se      34.16984578     104.71821454      15.50000000
Se      35.71323378     107.62147089      15.50000000
Se      37.25662179     110.52472725      15.50000000
Se      38.80000979     113.42798360      15.50000000
Se      40.34339780     116.33123996      15.50000000
Se      41.88678580     119.23449631      15.50000000
Se       1.95790942      38.05833331      15.50000000
Se       3.50129743      40.96158967      15.50000000
Se       5.04468543      43.86484603      15.50000000
Se       6.58807344      46.76810238      15.50000000
Se       8.13146144      49.67135874      15.50000000
Se       9.67484945      52.57461509      15.50000000
Se      11.21823745      55.47787145      15.50000000
Se      12.76162546      58.38112780      15.50000000
Se      14.30501346      61.28438416      15.50000000
Se      15.84840147      64.18764052      15.50000000
Se      17.39178947      67.09089687      15.50000000
Se      18.93517748      69.99415323      15.50000000
Se      20.47856548      72.89740958      15.50000000
Se      22.02195349      75.80066594      15.50000000
Se      23.56534149      78.70392229      15.50000000
Se      25.10872950      81.60717865      15.50000000
Se      26.65211750      84.51043500      15.50000000
Se      28.19550551      87.41369136      15.50000000
Se      29.73889351      90.31694772      15.50000000
Se      31.28228152      93.22020407      15.50000000
Se      32.82566952      96.12346043      15.50000000
Se      34.36905753      99.02671678      15.50000000
Se      35.91244553     101.92997314      15.50000000
Se      37.45583354     104.83322949      15.50000000
Se      38.99922154     107.73648585      15.50000000
Se      40.54260955     110.63974220      15.50000000
Se      42.08599755     113.54299856      15.50000000
Se      43.62938556     116.44625492      15.50000000
Se      45.17277356     119.34951127      15.50000000
Se      46.71616157     122.25276763      15.50000000
Se       2.15712118      32.36683556      15.50000000
Se       3.70050918      35.27009192      15.50000000
Se       5.24389718      38.17334827      15.50000000
Se       6.78728519      41.07660463      15.50000000
Se       8.33067319      43.97986098      15.50000000
Se       9.87406120      46.88311734      15.50000000
Se      11.41744920      49.78637369      15.50000000
Se      12.96083721      52.68963005      15.50000000
Se      14.50422521      55.59288641      15.50000000
Se      16.04761322      58.49614276      15.50000000
Se      17.59100122      61.39939912      15.50000000
Se      19.13438923      64.30265547      15.50000000
Se      20.67777723      67.20591183      15.50000000
Se      22.22116524      70.10916818      15.50000000
Se      23.76455324      73.01242454      15.50000000
Se      25.30794125      75.91568090      15.50000000
Se      26.85132925      78.81893725      15.50000000
Se      28.39471726      81.72219361      15.50000000
Se      29.93810526      84.62544996      15.50000000
Se      31.48149327      87.52870632      15.50000000
Se      33.02488127      90.43196267      15.50000000
Se      34.56826928      93.33521903      15.50000000
Se      36.11165728      96.23847538      15.50000000
Se      37.65504529      99.14173174      15.50000000
Se      39.19843329     102.04498810      15.50000000
Se      40.74182130     104.94824445      15.50000000
Se      42.28520930     107.85150081      15.50000000
Se      43.82859731     110.75475716      15.50000000
Se      45.37198531     113.65801352      15.50000000
Se      46.91537332     116.56126987      15.50000000
Se      48.45876132     119.46452623      15.50000000
Se      50.00214933     122.36778258      15.50000000
Se      51.54553733     125.27103894      15.50000000
Se       2.35633293      26.67533781      15.50000000
Se       3.89972093      29.57859416      15.50000000
Se       5.44310894      32.48185052      15.50000000
Se       6.98649694      35.38510687      15.50000000
Se       8.52988494      38.28836323      15.50000000
Se      10.07327295      41.19161959      15.50000000
Se      11.61666095      44.09487594      15.50000000
Se      13.16004896      46.99813230      15.50000000
Se      14.70343696      49.90138865      15.50000000
Se      16.24682497      52.80464501      15.50000000
Se      17.79021297      55.70790136      15.50000000
Se      19.33360098      58.61115772      15.50000000
Se      20.87698898      61.51441407      15.50000000
Se      22.42037699      64.41767043      15.50000000
Se      23.96376499      67.32092679      15.50000000
Se      25.50715300      70.22418314      15.50000000
Se      27.05054100      73.12743950      15.50000000
Se      28.59392901      76.03069585      15.50000000
Se      30.13731701      78.93395221      15.50000000
Se      31.68070502      81.83720856      15.50000000
Se      33.22409302      84.74046492      15.50000000
Se      34.76748103      87.64372128      15.50000000
Se      36.31086903      90.54697763      15.50000000
Se      37.85425704      93.45023399      15.50000000
Se      39.39764504      96.35349034      15.50000000
Se      40.94103305      99.25674670      15.50000000
Se      42.48442105     102.16000305      15.50000000
Se      44.02780906     105.06325941      15.50000000
Se      45.57119706     107.96651576      15.50000000
Se      47.11458507     110.86977212      15.50000000
Se      48.65797307     113.77302848      15.50000000
Se      50.20136108     116.67628483      15.50000000
Se      51.74474908     119.57954119      15.50000000
Se      53.28813709     122.48279754      15.50000000
Se      54.83152509     125.38605390      15.50000000
Se      56.37491310     128.28931025      15.50000000
Se       2.55554468      20.98384005      15.50000000
Se       4.09893268      23.88709641      15.50000000
Se       5.64232069      26.79035277      15.50000000
Se       7.18570869      29.69360912      15.50000000
Se       8.72909670      32.59686548      15.50000000
Se      10.27248470      35.50012183      15.50000000
Se      11.81587271      38.40337819      15.50000000
Se      13.35926071      41.30663454      15.50000000
Se      14.90264871      44.20989090      15.50000000
Se      16.44603672      47.11314725      15.50000000
Se      17.98942472      50.01640361      15.50000000
Se      19.53281273      52.91965997      15.50000000
Se      21.07620073      55.82291632      15.50000000
Se      22.61958874      58.72617268      15.50000000
Se      24.16297674      61.62942903      15.50000000
Se      25.70636475      64.53268539      15.50000000
Se      27.24975275      67.43594174      15.50000000
Se      28.79314076      70.33919810      15.50000000
Se      30.33652876      73.24245445      15.50000000
Se      31.87991677      76.14571081      15.50000000
Se      33.42330477      79.04896717      15.50000000
Se      34.96669278      81.95222352      15.50000000
Se      36.51008078      84.85547988      15.50000000
Se      38.05346879      87.75873623      15.50000000
Se      39.59685679      90.66199259      15.50000000
Se      41.14024480      93.56524894      15.50000000
Se      42.68363280      96.46850530      15.50000000
Se      44.22702081      99.37176166      15.50000000
Se      45.77040881     102.27501801      15.50000000
Se      47.31379682     105.17827437      15.50000000
Se      48.85718482     108.08153072      15.50000000
Se      50.40057283     110.98478708      15.50000000
Se      51.94396083     113.88804343      15.50000000
Se      53.48734884     116.79129979      15.50000000
Se      55.03073684     119.69455614      15.50000000
Se      56.57412485     122.59781250      15.50000000
Se      58.11751285     125.50106886      15.50000000
Se      59.66090086     128.40432521      15.50000000
Se      61.20428886     131.30758157      15.50000000
Se       2.75475643      15.29234230      15.50000000
Se       4.29814443      18.19559866      15.50000000
Se       5.84153244      21.09885501      15.50000000
Se       7.38492044      24.00211137      15.50000000
Se       8.92830845      26.90536772      15.50000000
Se      10.47169645      29.80862408      15.50000000
Se      12.01508446      32.71188043      15.50000000
Se      13.55847246      35.61513679      15.50000000
Se      15.10186047      38.51839315      15.50000000
Se      16.64524847      41.42164950      15.50000000
Se      18.18863647      44.32490586      15.50000000
Se      19.73202448      47.22816221      15.50000000
Se      21.27541248      50.13141857      15.50000000
Se      22.81880049      53.03467492      15.50000000
Se      24.36218849      55.93793128      15.50000000
Se      25.90557650      58.84118763      15.50000000
Se      27.44896450      61.74444399      15.50000000
Se      28.99235251      64.64770035      15.50000000
Se      30.53574051      67.55095670      15.50000000
Se      32.07912852      70.45421306      15.50000000
Se      33.62251652      73.35746941      15.50000000
Se      35.16590453      76.26072577      15.50000000
Se      36.70929253      79.16398212      15.50000000
Se      38.25268054      82.06723848      15.50000000
Se      39.79606854      84.97049483      15.50000000
Se      41.33945655      87.87375119      15.50000000
Se      42.88284455      90.77700755      15.50000000
Se      44.42623256      93.68026390      15.50000000
Se      45.96962056      96.58352026      15.50000000
Se      47.51300857      99.48677661      15.50000000
Se      49.05639657     102.39003297      15.50000000
Se      50.59978458     105.29328932      15.50000000
Se      52.14317258     108.19654568      15.50000000
Se      53.68656059     111.09980204      15.50000000
Se      55.22994859     114.00305839      15.50000000
Se      56.77333660     116.90631475      15.50000000
Se      58.31672460     119.80957110      15.50000000
Se      59.86011261     122.71282746      15.50000000
Se      61.40350061     125.61608381      15.50000000
Se      62.94688862     128.51934017      15.50000000
Se      64.49027662     131.42259652      15.50000000
Se      66.03366463     134.32585288      15.50000000
Se       2.95396818       9.60084455      15.50000000
Se       4.49735618      12.50410090      15.50000000
Se       6.04074419      15.40735726      15.50000000
Se       7.58413219      18.31061361      15.50000000
Se       9.12752020      21.21386997      15.50000000
Se      10.67090820      24.11712632      15.50000000
Se      12.21429621      27.02038268      15.50000000
Se      13.75768421      29.92363904      15.50000000
Se      15.30107222      32.82689539      15.50000000
Se      16.84446022      35.73015175      15.50000000
Se      18.38784823      38.63340810      15.50000000
Se      19.93123623      41.53666446      15.50000000
Se      21.47462424      44.43992081      15.50000000
Se      23.01801224      47.34317717      15.50000000
Se      24.56140024      50.24643353      15.50000000
Se      26.10478825      53.14968988      15.50000000
Se      27.64817625      56.05294624      15.50000000
Se      29.19156426      58.95620259      15.50000000
Se      30.73495226      61.85945895      15.50000000
Se      32.27834027      64.76271530      15.50000000
Se      33.82172827      67.66597166      15.50000000
Se      35.36511628      70.56922801      15.50000000
Se      36.90850428      73.47248437      15.50000000
Se      38.45189229      76.37574073      15.50000000
Se      39.99528029      79.27899708      15.50000000
Se      41.53866830      82.18225344      15.50000000
Se      43.08205630      85.08550979      15.50000000
Se      44.62544431      87.98876615      15.50000000
Se      46.16883231      90.89202250      15.50000000
Se      47.71222032      93.79527886      15.50000000
Se      49.25560832      96.69853521      15.50000000
Se      50.79899633      99.60179157      15.50000000
Se      52.34238433     102.50504793      15.50000000
Se      53.88577234     105.40830428      15.50000000
Se      55.42916034     108.31156064      15.50000000
Se      56.97254835     111.21481699      15.50000000
Se      58.51593635     114.11807335      15.50000000
Se      60.05932436     117.02132970      15.50000000
Se      61.60271236     119.92458606      15.50000000
Se      63.14610037     122.82784242      15.50000000
Se      64.68948837     125.73109877      15.50000000
Se      66.23287638     128.63435513      15.50000000
Se      67.77626438     131.53761148      15.50000000
Se      69.31965239     134.44086784      15.50000000
Se      70.86304039     137.34412419      15.50000000
Se       1.60979192       1.00609044      15.50000000
Se       3.15317993       3.90934679      15.50000000
Se       4.69656793       6.81260315      15.50000000
Se       6.23995594       9.71585950      15.50000000
Se       7.78334394      12.61911586      15.50000000
Se       9.32673195      15.52237222      15.50000000
Se      10.87011995      18.42562857      15.50000000
Se      12.41350796      21.32888493      15.50000000
Se      13.95689596      24.23214128      15.50000000
Se      15.50028397      27.13539764      15.50000000
Se      17.04367197      30.03865399      15.50000000
Se      18.58705998      32.94191035      15.50000000
Se      20.13044798      35.84516670      15.50000000
Se      21.67383599      38.74842306      15.50000000
Se      23.21722399      41.65167942      15.50000000
Se      24.76061200      44.55493577      15.50000000
Se      26.30400000      47.45819213      15.50000000
Se      27.84738800      50.36144848      15.50000000
Se      29.39077601      53.26470484      15.50000000
Se      30.93416401      56.16796119      15.50000000
Se      32.47755202      59.07121755      15.50000000
Se      34.02094002      61.97447391      15.50000000
Se      35.56432803      64.87773026      15.50000000
Se      37.10771603      67.78098662      15.50000000
Se      38.65110404      70.68424297      15.50000000
Se      40.19449204      73.58749933      15.50000000
Se      41.73788005      76.49075568      15.50000000
Se      43.28126805      79.39401204      15.50000000
Se      44.82465606      82.29726839      15.50000000
Se      46.36804406      85.20052475      15.50000000
Se      47.91143207      88.10378111      15.50000000
Se      49.45482007      91.00703746      15.50000000
Se      50.99820808      93.91029382      15.50000000
Se      52.54159608      96.81355017      15.50000000
Se      54.08498409      99.71680653      15.50000000
Se      55.62837209     102.62006288      15.50000000
Se      57.17176010     105.52331924      15.50000000
Se      58.71514810     108.42657560      15.50000000
Se      60.25853611     111.32983195      15.50000000
Se      61.80192411     114.23308831      15.50000000
Se      63.34531212     117.13634466      15.50000000
Se      64.88870012     120.03960102      15.50000000
Se      66.43208813     122.94285737      15.50000000
Se      67.97547613     125.84611373      15.50000000
Se      69.51886414     128.74937008      15.50000000
Se      71.06225214     131.65262644      15.50000000
Se      72.60564015     134.55588280      15.50000000
Se      74.14902815     137.45913915      15.50000000
Se      75.69241616     140.36239551      15.50000000
Se       6.43916769       4.02436175      15.50000000
Se       7.98255569       6.92761811      15.50000000
Se       9.52594370       9.83087446      15.50000000
Se      11.06933170      12.73413082      15.50000000
Se      12.61271971      15.63738717      15.50000000
Se      14.15610771      18.54064353      15.50000000
Se      15.69949572      21.44389988      15.50000000
Se      17.24288372      24.34715624      15.50000000
Se      18.78627173      27.25041260      15.50000000
Se      20.32965973      30.15366895      15.50000000
Se      21.87304774      33.05692531      15.50000000
Se      23.41643574      35.96018166      15.50000000
Se      24.95982375      38.86343802      15.50000000
Se      26.50321175      41.76669437      15.50000000
Se      28.04659976      44.66995073      15.50000000
Se      29.58998776      47.57320709      15.50000000
Se      31.13337576      50.47646344      15.50000000
Se      32.67676377      53.37971980      15.50000000
Se      34.22015177      56.28297615      15.50000000
Se      35.76353978      59.18623251      15.50000000
Se      37.30692778      62.08948886      15.50000000
Se      38.85031579      64.99274522      15.50000000
Se      40.39370379      67.89600157      15.50000000
Se      41.93709180      70.79925793      15.50000000
Se      43.48047980      73.70251429      15.50000000
Se      45.02386781      76.60577064      15.50000000
Se      46.56725581      79.50902700      15.50000000
Se      48.11064382      82.41228335      15.50000000
Se      49.65403182      85.31553971      15.50000000
Se      51.19741983      88.21879606      15.50000000
Se      52.74080783      91.12205242      15.50000000
Se      54.28419584      94.02530877      15.50000000
Se      55.82758384      96.92856513      15.50000000
Se      57.37097185      99.83182149      15.50000000
Se      58.91435985     102.73507784      15.50000000
Se      60.45774786     105.63833420      15.50000000
Se      62.00113586     108.54159055      15.50000000
Se      63.54452387     111.44484691      15.50000000
Se      65.08791187     114.34810326      15.50000000
Se      66.63129988     117.25135962      15.50000000
Se      68.17468788     120.15461598      15.50000000
Se      69.71807589     123.05787233      15.50000000
Se      71.26146389     125.96112869      15.50000000
Se      72.80485190     128.86438504      15.50000000
Se      74.34823990     131.76764140      15.50000000
Se      75.89162791     134.67089775      15.50000000
Se      77.43501591     137.57415411      15.50000000
Se      -1.57759608      92.07005449      15.50000000
Se      11.26854345       7.04263306      15.50000000
Se      12.81193146       9.94588942      15.50000000
Se      14.35531946      12.84914578      15.50000000
Se      15.89870747      15.75240213      15.50000000
Se      17.44209547      18.65565849      15.50000000
Se      18.98548348      21.55891484      15.50000000
Se      20.52887148      24.46217120      15.50000000
Se      22.07225949      27.36542755      15.50000000
Se      23.61564749      30.26868391      15.50000000
Se      25.15903550      33.17194026      15.50000000
Se      26.70242350      36.07519662      15.50000000
Se      28.24581151      38.97845298      15.50000000
Se      29.78919951      41.88170933      15.50000000
Se      31.33258752      44.78496569      15.50000000
Se      32.87597552      47.68822204      15.50000000
Se      34.41936353      50.59147840      15.50000000
Se      35.96275153      53.49473475      15.50000000
Se      37.50613953      56.39799111      15.50000000
Se      39.04952754      59.30124747      15.50000000
Se      40.59291554      62.20450382      15.50000000
Se      42.13630355      65.10776018      15.50000000
Se      43.67969155      68.01101653      15.50000000
Se      45.22307956      70.91427289      15.50000000
Se      46.76646756      73.81752924      15.50000000
Se      48.30985557      76.72078560      15.50000000
Se      49.85324357      79.62404195      15.50000000
Se      51.39663158      82.52729831      15.50000000
Se      52.94001958      85.43055467      15.50000000
Se      54.48340759      88.33381102      15.50000000
Se      56.02679559      91.23706738      15.50000000
Se      57.57018360      94.14032373      15.50000000
Se      59.11357160      97.04358009      15.50000000
Se      60.65695961      99.94683644      15.50000000
Se      62.20034761     102.85009280      15.50000000
Se      63.74373562     105.75334915      15.50000000
Se      65.28712362     108.65660551      15.50000000
Se      66.83051163     111.55986187      15.50000000
Se      68.37389963     114.46311822      15.50000000
Se      69.91728764     117.36637458      15.50000000
Se      71.46067564     120.26963093      15.50000000
Se      73.00406365     123.17288729      15.50000000
Se      74.54745165     126.07614364      15.50000000
Se      76.09083966     128.97940000      15.50000000
Se      77.63422766     131.88265636      15.50000000
Se      -1.37838433      86.37855674      15.50000000
Se      16.09791922      10.06090438      15.50000000
Se      17.64130722      12.96416073      15.50000000
Se      19.18469523      15.86741709      15.50000000
Se      20.72808323      18.77067344      15.50000000
Se      22.27147124      21.67392980      15.50000000
Se      23.81485924      24.57718616      15.50000000
Se      25.35824725      27.48044251      15.50000000
Se      26.90163525      30.38369887      15.50000000
Se      28.44502326      33.28695522      15.50000000
Se      29.98841126      36.19021158      15.50000000
Se      31.53179927      39.09346793      15.50000000
Se      33.07518727      41.99672429      15.50000000
Se      34.61857528      44.89998064      15.50000000
Se      36.16196328      47.80323700      15.50000000
Se      37.70535129      50.70649336      15.50000000
Se      39.24873929      53.60974971      15.50000000
Se      40.79212729      56.51300607      15.50000000
Se      42.33551530      59.41626242      15.50000000
Se      43.87890330      62.31951878      15.50000000
Se      45.42229131      65.22277513      15.50000000
Se      46.96567931      68.12603149      15.50000000
Se      48.50906732      71.02928785      15.50000000
Se      50.05245532      73.93254420      15.50000000
Se      51.59584333      76.83580056      15.50000000
Se      53.13923133      79.73905691      15.50000000
Se      54.68261934      82.64231327      15.50000000
Se      56.22600734      85.54556962      15.50000000
Se      57.76939535      88.44882598      15.50000000
Se      59.31278335      91.35208233      15.50000000
Se      60.85617136      94.25533869      15.50000000
Se      62.39955936      97.15859505      15.50000000
Se      63.94294737     100.06185140      15.50000000
Se      65.48633537     102.96510776      15.50000000
Se      67.02972338     105.86836411      15.50000000
Se      68.57311138     108.77162047      15.50000000
Se      70.11649939     111.67487682      15.50000000
Se      71.65988739     114.57813318      15.50000000
Se      73.20327540     117.48138953      15.50000000
Se      74.74666340     120.38464589      15.50000000
Se      76.29005141     123.28790225      15.50000000
Se      77.83343941     126.19115860      15.50000000
Se      -1.17917258      80.68705899      15.50000000
Se      20.92729498      13.07917569      15.50000000
Se      22.47068299      15.98243205      15.50000000
Se      24.01407099      18.88568840      15.50000000
Se      25.55745900      21.78894476      15.50000000
Se      27.10084700      24.69220111      15.50000000
Se      28.64423501      27.59545747      15.50000000
Se      30.18762301      30.49871382      15.50000000
Se      31.73101102      33.40197018      15.50000000
Se      33.27439902      36.30522654      15.50000000
Se      34.81778703      39.20848289      15.50000000
Se      36.36117503      42.11173925      15.50000000
Se      37.90456304      45.01499560      15.50000000
Se      39.44795104      47.91825196      15.50000000
Se      40.99133905      50.82150831      15.50000000
Se      42.53472705      53.72476467      15.50000000
Se      44.07811506      56.62802102      15.50000000
Se      45.62150306      59.53127738      15.50000000
Se      47.16489106      62.43453374      15.50000000
Se      48.70827907      65.33779009      15.50000000
Se      50.25166707      68.24104645      15.50000000
Se      51.79505508      71.14430280      15.50000000
Se      53.33844308      74.04755916      15.50000000
Se      54.88183109      76.95081551      15.50000000
Se      56.42521909      79.85407187      15.50000000
Se      57.96860710      82.75732823      15.50000000
Se      59.51199510      85.66058458      15.50000000
Se      61.05538311      88.56384094      15.50000000
Se      62.59877111      91.46709729      15.50000000
Se      64.14215912      94.37035365      15.50000000
Se      65.68554712      97.27361000      15.50000000
Se      67.22893513     100.17686636      15.50000000
Se      68.77232313     103.08012271      15.50000000
Se      70.31571114     105.98337907      15.50000000
Se      71.85909914     108.88663543      15.50000000
Se      73.40248715     111.78989178      15.50000000
Se      74.94587515     114.69314814      15.50000000
Se      76.48926316     117.59640449      15.50000000
Se      78.03265116     120.49966085      15.50000000
Se      -0.97996083      74.99556123      15.50000000
Se      25.75667075      16.09744700      15.50000000
Se      27.30005875      19.00070336      15.50000000
Se      28.84344676      21.90395972      15.50000000
Se      30.38683476      24.80721607      15.50000000
Se      31.93022277      27.71047243      15.50000000
Se      33.47361077      30.61372878      15.50000000
Se      35.01699878      33.51698514      15.50000000
Se      36.56038678      36.42024149      15.50000000
Se      38.10377479      39.32349785      15.50000000
Se      39.64716279      42.22675420      15.50000000
Se      41.19055080      45.13001056      15.50000000
Se      42.73393880      48.03326692      15.50000000
Se      44.27732681      50.93652327      15.50000000
Se      45.82071481      53.83977963      15.50000000
Se      47.36410282      56.74303598      15.50000000
Se      48.90749082      59.64629234      15.50000000
Se      50.45087882      62.54954869      15.50000000
Se      51.99426683      65.45280505      15.50000000
Se      53.53765483      68.35606140      15.50000000
Se      55.08104284      71.25931776      15.50000000
Se      56.62443084      74.16257412      15.50000000
Se      58.16781885      77.06583047      15.50000000
Se      59.71120685      79.96908683      15.50000000
Se      61.25459486      82.87234318      15.50000000
Se      62.79798286      85.77559954      15.50000000
Se      64.34137087      88.67885589      15.50000000
Se      65.88475887      91.58211225      15.50000000
Se      67.42814688      94.48536861      15.50000000
Se      68.97153488      97.38862496      15.50000000
Se      70.51492289     100.29188132      15.50000000
Se      72.05831089     103.19513767      15.50000000
Se      73.60169890     106.09839403      15.50000000
Se      75.14508690     109.00165038      15.50000000
Se      76.68847491     111.90490674      15.50000000
Se      78.23186291     114.80816309      15.50000000
Se      -0.78074908      69.30406348      15.50000000
Se      30.58604651      19.11571832      15.50000000
Se      32.12943452      22.01897467      15.50000000
Se      33.67282252      24.92223103      15.50000000
Se      35.21621053      27.82548738      15.50000000
Se      36.75959853      30.72874374      15.50000000
Se      38.30298654      33.63200010      15.50000000
Se      39.84637454      36.53525645      15.50000000
Se      41.38976255      39.43851281      15.50000000
Se      42.93315055      42.34176916      15.50000000
Se      44.47653856      45.24502552      15.50000000
Se      46.01992656      48.14828187      15.50000000
Se      47.56331457      51.05153823      15.50000000
Se      49.10670257      53.95479458      15.50000000
Se      50.65009058      56.85805094      15.50000000
Se      52.19347858      59.76130730      15.50000000
Se      53.73686659      62.66456365      15.50000000
Se      55.28025459      65.56782001      15.50000000
Se      56.82364259      68.47107636      15.50000000
Se      58.36703060      71.37433272      15.50000000
Se      59.91041860      74.27758907      15.50000000
Se      61.45380661      77.18084543      15.50000000
Se      62.99719461      80.08410178      15.50000000
Se      64.54058262      82.98735814      15.50000000
Se      66.08397062      85.89061450      15.50000000
Se      67.62735863      88.79387085      15.50000000
Se      69.17074663      91.69712721      15.50000000
Se      70.71413464      94.60038356      15.50000000
Se      72.25752264      97.50363992      15.50000000
Se      73.80091065     100.40689627      15.50000000
Se      75.34429865     103.31015263      15.50000000
Se      76.88768666     106.21340899      15.50000000
Se      78.43107466     109.11666534      15.50000000
Se      -0.58153733      63.61256573      15.50000000
Se      35.41542228      22.13398963      15.50000000
Se      36.95881028      25.03724599      15.50000000
Se      38.50219829      27.94050234      15.50000000
Se      40.04558629      30.84375870      15.50000000
Se      41.58897430      33.74701505      15.50000000
Se      43.13236230      36.65027141      15.50000000
Se      44.67575031      39.55352776      15.50000000
Se      46.21913831      42.45678412      15.50000000
Se      47.76252632      45.36004048      15.50000000
Se      49.30591432      48.26329683      15.50000000
Se      50.84930233      51.16655319      15.50000000
Se      52.39269033      54.06980954      15.50000000
Se      53.93607834      56.97306590      15.50000000
Se      55.47946634      59.87632225      15.50000000
Se      57.02285435      62.77957861      15.50000000
Se      58.56624235      65.68283496      15.50000000
Se      60.10963035      68.58609132      15.50000000
Se      61.65301836      71.48934768      15.50000000
Se      63.19640636      74.39260403      15.50000000
Se      64.73979437      77.29586039      15.50000000
Se      66.28318237      80.19911674      15.50000000
Se      67.82657038      83.10237310      15.50000000
Se      69.36995838      86.00562945      15.50000000
Se      70.91334639      88.90888581      15.50000000
Se      72.45673439      91.81214217      15.50000000
Se      74.00012240      94.71539852      15.50000000
Se      75.54351040      97.61865488      15.50000000
Se      77.08689841     100.52191123      15.50000000
Se      78.63028641     103.42516759      15.50000000
Se      -0.38232558      57.92106797      15.50000000
Se      40.24479804      25.15226094      15.50000000
Se      41.78818605      28.05551730      15.50000000
Se      43.33157405      30.95877366      15.50000000
Se      44.87496206      33.86203001      15.50000000
Se      46.41835006      36.76528637      15.50000000
Se      47.96173807      39.66854272      15.50000000
Se      49.50512607      42.57179908      15.50000000
Se      51.04851408      45.47505543      15.50000000
Se      52.59190208      48.37831179      15.50000000
Se      54.13529009      51.28156814      15.50000000
Se      55.67867809      54.18482450      15.50000000
Se      57.22206610      57.08808086      15.50000000
Se      58.76545410      59.99133721      15.50000000
Se      60.30884211      62.89459357      15.50000000
Se      61.85223011      65.79784992      15.50000000
Se      63.39561812      68.70110628      15.50000000
Se      64.93900612      71.60436263      15.50000000
Se      66.48239412      74.50761899      15.50000000
Se      68.02578213      77.41087534      15.50000000
Se      69.56917013      80.31413170      15.50000000
Se      71.11255814      83.21738806      15.50000000
Se      72.65594614      86.12064441      15.50000000
Se      74.19933415      89.02390077      15.50000000
Se      75.74272215      91.92715712      15.50000000
Se      77.28611016      94.83041348      15.50000000
Se      78.82949816      97.73366983      15.50000000
Se      -0.18311383      52.22957022      15.50000000
Se      45.07417381      28.17053226      15.50000000
Se      46.61756181      31.07378861      15.50000000
Se      48.16094982      33.97704497      15.50000000
Se      49.70433782      36.88030132      15.50000000
Se      51.24772583      39.78355768      15.50000000
Se      52.79111383      42.68681404      15.50000000
Se      54.33450184      45.59007039      15.50000000
Se      55.87788984      48.49332675      15.50000000
Se      57.42127785      51.39658310      15.50000000
Se      58.96466585      54.29983946      15.50000000
Se      60.50805386      57.20309581      15.50000000
Se      62.05144186      60.10635217      15.50000000
Se      63.59482987      63.00960852      15.50000000
Se      65.13821787      65.91286488      15.50000000
Se      66.68160588      68.81612124      15.50000000
Se      68.22499388      71.71937759      15.50000000
Se      69.76838188      74.62263395      15.50000000
Se      71.31176989      77.52589030      15.50000000
Se      72.85515789      80.42914666      15.50000000
Se      74.39854590      83.33240301      15.50000000
Se      75.94193390      86.23565937      15.50000000
Se      77.48532191      89.13891572      15.50000000
Se      79.02870991      92.04217208      15.50000000
Se       0.01609792      46.53807247      15.50000000
Se      49.90354957      31.18880357      15.50000000
Se      51.44693758      34.09205993      15.50000000
Se      52.99032558      36.99531628      15.50000000
Se      54.53371359      39.89857264      15.50000000
Se      56.07710159      42.80182899      15.50000000
Se      57.62048960      45.70508535      15.50000000
Se      59.16387760      48.60834170      15.50000000
Se      60.70726561      51.51159806      15.50000000
Se      62.25065361      54.41485442      15.50000000
Se      63.79404162      57.31811077      15.50000000
Se      65.33742962      60.22136713      15.50000000
Se      66.88081763      63.12462348      15.50000000
Se      68.42420563      66.02787984      15.50000000
Se      69.96759364      68.93113619      15.50000000
Se      71.51098164      71.83439255      15.50000000
Se      73.05436965      74.73764890      15.50000000
Se      74.59775765      77.64090526      15.50000000
Se      76.14114565      80.54416162      15.50000000
Se      77.68453366      83.44741797      15.50000000
Se      79.22792166      86.35067433      15.50000000
Se       0.21530967      40.84657471      15.50000000
Se      54.73292534      34.20707488      15.50000000
Se      56.27631334      37.11033124      15.50000000
Se      57.81970135      40.01358759      15.50000000
Se      59.36308935      42.91684395      15.50000000
Se      60.90647736      45.82010031      15.50000000
Se      62.44986536      48.72335666      15.50000000
Se      63.99325337      51.62661302      15.50000000
Se      65.53664137      54.52986937      15.50000000
Se      67.08002938      57.43312573      15.50000000
Se      68.62341738      60.33638208      15.50000000
Se      70.16680539      63.23963844      15.50000000
Se      71.71019339      66.14289480      15.50000000
Se      73.25358140      69.04615115      15.50000000
Se      74.79696940      71.94940751      15.50000000
Se      76.34035741      74.85266386      15.50000000
Se      77.88374541      77.75592022      15.50000000
Se      79.42713341      80.65917657      15.50000000
Se       0.41452142      35.15507696      15.50000000
Se      59.56230110      37.22534620      15.50000000
Se      61.10568911      40.12860255      15.50000000
Se      62.64907711      43.03185891      15.50000000
Se      64.19246512      45.93511526      15.50000000
Se      65.73585312      48.83837162      15.50000000
Se      67.27924113      51.74162797      15.50000000
Se      68.82262913      54.64488433      15.50000000
Se      70.36601714      57.54814069      15.50000000
Se      71.90940514      60.45139704      15.50000000
Se      73.45279315      63.35465340      15.50000000
Se      74.99618115      66.25790975      15.50000000
Se      76.53956916      69.16116611      15.50000000
Se      78.08295716      72.06442246      15.50000000
Se      79.62634517      74.96767882      15.50000000
Se       0.61373317      29.46357921      15.50000000
Se      64.39167687      40.24361751      15.50000000
Se      65.93506487      43.14687387      15.50000000
Se      67.47845288      46.05013022      15.50000000
Se      69.02184088      48.95338658      15.50000000
Se      70.56522889      51.85664293      15.50000000
Se      72.10861689      54.75989929      15.50000000
Se      73.65200490      57.66315564      15.50000000
Se      75.19539290      60.56641200      15.50000000
Se      76.73878091      63.46966836      15.50000000
Se      78.28216891      66.37292471      15.50000000
Se      79.82555692      69.27618107      15.50000000
Se       0.81294492      23.77208145      15.50000000
Se      69.22105263      43.26188882      15.50000000
Se      70.76444064      46.16514518      15.50000000
Se      72.30782864      49.06840153      15.50000000
Se      73.85121665      51.97165789      15.50000000
Se      75.39460465      54.87491425      15.50000000
Se      76.93799266      57.77817060      15.50000000
Se      78.48138066      60.68142696      15.50000000
Se      80.02476867      63.58468331      15.50000000
Se       1.01215667      18.08058370      15.50000000
Se      74.05042840      46.28016014      15.50000000
Se      75.59381640      49.18341649      15.50000000
Se      77.13720441      52.08667285      15.50000000
Se      78.68059241      54.98992920      15.50000000
Se      80.22398042      57.89318556      15.50000000
Se       1.21136842      12.38908594      15.50000000
Se      78.87980416      49.29843145      15.50000000
Se      80.42319217      52.20168781      15.50000000
Se       1.41058017       6.69758819      15.50000000
